p cnf 90 1491
1 2 3 4 5 6 7 8 9 10 11 12 13 14 15 0
-1 -2 0
-1 -3 0
-1 -4 0
-1 -5 0
-1 -6 0
-1 -7 0
-1 -8 0
-1 -9 0
-1 -10 0
-1 -11 0
-1 -12 0
-1 -13 0
-1 -14 0
-1 -15 0
-2 -3 0
-2 -4 0
-2 -5 0
-2 -6 0
-2 -7 0
-2 -8 0
-2 -9 0
-2 -10 0
-2 -11 0
-2 -12 0
-2 -13 0
-2 -14 0
-2 -15 0
-3 -4 0
-3 -5 0
-3 -6 0
-3 -7 0
-3 -8 0
-3 -9 0
-3 -10 0
-3 -11 0
-3 -12 0
-3 -13 0
-3 -14 0
-3 -15 0
-4 -5 0
-4 -6 0
-4 -7 0
-4 -8 0
-4 -9 0
-4 -10 0
-4 -11 0
-4 -12 0
-4 -13 0
-4 -14 0
-4 -15 0
-5 -6 0
-5 -7 0
-5 -8 0
-5 -9 0
-5 -10 0
-5 -11 0
-5 -12 0
-5 -13 0
-5 -14 0
-5 -15 0
-6 -7 0
-6 -8 0
-6 -9 0
-6 -10 0
-6 -11 0
-6 -12 0
-6 -13 0
-6 -14 0
-6 -15 0
-7 -8 0
-7 -9 0
-7 -10 0
-7 -11 0
-7 -12 0
-7 -13 0
-7 -14 0
-7 -15 0
-8 -9 0
-8 -10 0
-8 -11 0
-8 -12 0
-8 -13 0
-8 -14 0
-8 -15 0
-9 -10 0
-9 -11 0
-9 -12 0
-9 -13 0
-9 -14 0
-9 -15 0
-10 -11 0
-10 -12 0
-10 -13 0
-10 -14 0
-10 -15 0
-11 -12 0
-11 -13 0
-11 -14 0
-11 -15 0
-12 -13 0
-12 -14 0
-12 -15 0
-13 -14 0
-13 -15 0
-14 -15 0
16 17 18 19 20 21 22 23 24 25 26 27 28 29 30 0
-16 -17 0
-16 -18 0
-16 -19 0
-16 -20 0
-16 -21 0
-16 -22 0
-16 -23 0
-16 -24 0
-16 -25 0
-16 -26 0
-16 -27 0
-16 -28 0
-16 -29 0
-16 -30 0
-17 -18 0
-17 -19 0
-17 -20 0
-17 -21 0
-17 -22 0
-17 -23 0
-17 -24 0
-17 -25 0
-17 -26 0
-17 -27 0
-17 -28 0
-17 -29 0
-17 -30 0
-18 -19 0
-18 -20 0
-18 -21 0
-18 -22 0
-18 -23 0
-18 -24 0
-18 -25 0
-18 -26 0
-18 -27 0
-18 -28 0
-18 -29 0
-18 -30 0
-19 -20 0
-19 -21 0
-19 -22 0
-19 -23 0
-19 -24 0
-19 -25 0
-19 -26 0
-19 -27 0
-19 -28 0
-19 -29 0
-19 -30 0
-20 -21 0
-20 -22 0
-20 -23 0
-20 -24 0
-20 -25 0
-20 -26 0
-20 -27 0
-20 -28 0
-20 -29 0
-20 -30 0
-21 -22 0
-21 -23 0
-21 -24 0
-21 -25 0
-21 -26 0
-21 -27 0
-21 -28 0
-21 -29 0
-21 -30 0
-22 -23 0
-22 -24 0
-22 -25 0
-22 -26 0
-22 -27 0
-22 -28 0
-22 -29 0
-22 -30 0
-23 -24 0
-23 -25 0
-23 -26 0
-23 -27 0
-23 -28 0
-23 -29 0
-23 -30 0
-24 -25 0
-24 -26 0
-24 -27 0
-24 -28 0
-24 -29 0
-24 -30 0
-25 -26 0
-25 -27 0
-25 -28 0
-25 -29 0
-25 -30 0
-26 -27 0
-26 -28 0
-26 -29 0
-26 -30 0
-27 -28 0
-27 -29 0
-27 -30 0
-28 -29 0
-28 -30 0
-29 -30 0
31 32 33 34 35 36 37 38 39 40 41 42 43 44 45 0
-31 -32 0
-31 -33 0
-31 -34 0
-31 -35 0
-31 -36 0
-31 -37 0
-31 -38 0
-31 -39 0
-31 -40 0
-31 -41 0
-31 -42 0
-31 -43 0
-31 -44 0
-31 -45 0
-32 -33 0
-32 -34 0
-32 -35 0
-32 -36 0
-32 -37 0
-32 -38 0
-32 -39 0
-32 -40 0
-32 -41 0
-32 -42 0
-32 -43 0
-32 -44 0
-32 -45 0
-33 -34 0
-33 -35 0
-33 -36 0
-33 -37 0
-33 -38 0
-33 -39 0
-33 -40 0
-33 -41 0
-33 -42 0
-33 -43 0
-33 -44 0
-33 -45 0
-34 -35 0
-34 -36 0
-34 -37 0
-34 -38 0
-34 -39 0
-34 -40 0
-34 -41 0
-34 -42 0
-34 -43 0
-34 -44 0
-34 -45 0
-35 -36 0
-35 -37 0
-35 -38 0
-35 -39 0
-35 -40 0
-35 -41 0
-35 -42 0
-35 -43 0
-35 -44 0
-35 -45 0
-36 -37 0
-36 -38 0
-36 -39 0
-36 -40 0
-36 -41 0
-36 -42 0
-36 -43 0
-36 -44 0
-36 -45 0
-37 -38 0
-37 -39 0
-37 -40 0
-37 -41 0
-37 -42 0
-37 -43 0
-37 -44 0
-37 -45 0
-38 -39 0
-38 -40 0
-38 -41 0
-38 -42 0
-38 -43 0
-38 -44 0
-38 -45 0
-39 -40 0
-39 -41 0
-39 -42 0
-39 -43 0
-39 -44 0
-39 -45 0
-40 -41 0
-40 -42 0
-40 -43 0
-40 -44 0
-40 -45 0
-41 -42 0
-41 -43 0
-41 -44 0
-41 -45 0
-42 -43 0
-42 -44 0
-42 -45 0
-43 -44 0
-43 -45 0
-44 -45 0
46 47 48 49 50 51 52 53 54 55 56 57 58 59 60 0
-46 -47 0
-46 -48 0
-46 -49 0
-46 -50 0
-46 -51 0
-46 -52 0
-46 -53 0
-46 -54 0
-46 -55 0
-46 -56 0
-46 -57 0
-46 -58 0
-46 -59 0
-46 -60 0
-47 -48 0
-47 -49 0
-47 -50 0
-47 -51 0
-47 -52 0
-47 -53 0
-47 -54 0
-47 -55 0
-47 -56 0
-47 -57 0
-47 -58 0
-47 -59 0
-47 -60 0
-48 -49 0
-48 -50 0
-48 -51 0
-48 -52 0
-48 -53 0
-48 -54 0
-48 -55 0
-48 -56 0
-48 -57 0
-48 -58 0
-48 -59 0
-48 -60 0
-49 -50 0
-49 -51 0
-49 -52 0
-49 -53 0
-49 -54 0
-49 -55 0
-49 -56 0
-49 -57 0
-49 -58 0
-49 -59 0
-49 -60 0
-50 -51 0
-50 -52 0
-50 -53 0
-50 -54 0
-50 -55 0
-50 -56 0
-50 -57 0
-50 -58 0
-50 -59 0
-50 -60 0
-51 -52 0
-51 -53 0
-51 -54 0
-51 -55 0
-51 -56 0
-51 -57 0
-51 -58 0
-51 -59 0
-51 -60 0
-52 -53 0
-52 -54 0
-52 -55 0
-52 -56 0
-52 -57 0
-52 -58 0
-52 -59 0
-52 -60 0
-53 -54 0
-53 -55 0
-53 -56 0
-53 -57 0
-53 -58 0
-53 -59 0
-53 -60 0
-54 -55 0
-54 -56 0
-54 -57 0
-54 -58 0
-54 -59 0
-54 -60 0
-55 -56 0
-55 -57 0
-55 -58 0
-55 -59 0
-55 -60 0
-56 -57 0
-56 -58 0
-56 -59 0
-56 -60 0
-57 -58 0
-57 -59 0
-57 -60 0
-58 -59 0
-58 -60 0
-59 -60 0
61 62 63 64 65 66 67 68 69 70 71 72 73 74 75 0
-61 -62 0
-61 -63 0
-61 -64 0
-61 -65 0
-61 -66 0
-61 -67 0
-61 -68 0
-61 -69 0
-61 -70 0
-61 -71 0
-61 -72 0
-61 -73 0
-61 -74 0
-61 -75 0
-62 -63 0
-62 -64 0
-62 -65 0
-62 -66 0
-62 -67 0
-62 -68 0
-62 -69 0
-62 -70 0
-62 -71 0
-62 -72 0
-62 -73 0
-62 -74 0
-62 -75 0
-63 -64 0
-63 -65 0
-63 -66 0
-63 -67 0
-63 -68 0
-63 -69 0
-63 -70 0
-63 -71 0
-63 -72 0
-63 -73 0
-63 -74 0
-63 -75 0
-64 -65 0
-64 -66 0
-64 -67 0
-64 -68 0
-64 -69 0
-64 -70 0
-64 -71 0
-64 -72 0
-64 -73 0
-64 -74 0
-64 -75 0
-65 -66 0
-65 -67 0
-65 -68 0
-65 -69 0
-65 -70 0
-65 -71 0
-65 -72 0
-65 -73 0
-65 -74 0
-65 -75 0
-66 -67 0
-66 -68 0
-66 -69 0
-66 -70 0
-66 -71 0
-66 -72 0
-66 -73 0
-66 -74 0
-66 -75 0
-67 -68 0
-67 -69 0
-67 -70 0
-67 -71 0
-67 -72 0
-67 -73 0
-67 -74 0
-67 -75 0
-68 -69 0
-68 -70 0
-68 -71 0
-68 -72 0
-68 -73 0
-68 -74 0
-68 -75 0
-69 -70 0
-69 -71 0
-69 -72 0
-69 -73 0
-69 -74 0
-69 -75 0
-70 -71 0
-70 -72 0
-70 -73 0
-70 -74 0
-70 -75 0
-71 -72 0
-71 -73 0
-71 -74 0
-71 -75 0
-72 -73 0
-72 -74 0
-72 -75 0
-73 -74 0
-73 -75 0
-74 -75 0
76 77 78 79 80 81 82 83 84 85 86 87 88 89 90 0
-76 -77 0
-76 -78 0
-76 -79 0
-76 -80 0
-76 -81 0
-76 -82 0
-76 -83 0
-76 -84 0
-76 -85 0
-76 -86 0
-76 -87 0
-76 -88 0
-76 -89 0
-76 -90 0
-77 -78 0
-77 -79 0
-77 -80 0
-77 -81 0
-77 -82 0
-77 -83 0
-77 -84 0
-77 -85 0
-77 -86 0
-77 -87 0
-77 -88 0
-77 -89 0
-77 -90 0
-78 -79 0
-78 -80 0
-78 -81 0
-78 -82 0
-78 -83 0
-78 -84 0
-78 -85 0
-78 -86 0
-78 -87 0
-78 -88 0
-78 -89 0
-78 -90 0
-79 -80 0
-79 -81 0
-79 -82 0
-79 -83 0
-79 -84 0
-79 -85 0
-79 -86 0
-79 -87 0
-79 -88 0
-79 -89 0
-79 -90 0
-80 -81 0
-80 -82 0
-80 -83 0
-80 -84 0
-80 -85 0
-80 -86 0
-80 -87 0
-80 -88 0
-80 -89 0
-80 -90 0
-81 -82 0
-81 -83 0
-81 -84 0
-81 -85 0
-81 -86 0
-81 -87 0
-81 -88 0
-81 -89 0
-81 -90 0
-82 -83 0
-82 -84 0
-82 -85 0
-82 -86 0
-82 -87 0
-82 -88 0
-82 -89 0
-82 -90 0
-83 -84 0
-83 -85 0
-83 -86 0
-83 -87 0
-83 -88 0
-83 -89 0
-83 -90 0
-84 -85 0
-84 -86 0
-84 -87 0
-84 -88 0
-84 -89 0
-84 -90 0
-85 -86 0
-85 -87 0
-85 -88 0
-85 -89 0
-85 -90 0
-86 -87 0
-86 -88 0
-86 -89 0
-86 -90 0
-87 -88 0
-87 -89 0
-87 -90 0
-88 -89 0
-88 -90 0
-89 -90 0
-14 -19 0
-14 -38 0
-14 -60 0
-14 -67 0
-14 -82 0
-19 -38 0
-19 -60 0
-19 -67 0
-19 -82 0
-38 -60 0
-38 -67 0
-38 -82 0
-60 -67 0
-60 -82 0
-67 -82 0
-1 -26 0
-1 -39 0
-1 -55 0
-1 -68 0
-1 -89 0
-26 -39 0
-26 -55 0
-26 -68 0
-26 -89 0
-39 -55 0
-39 -68 0
-39 -89 0
-55 -68 0
-55 -89 0
-68 -89 0
-2 -17 0
-2 -43 0
-2 -47 0
-2 -63 0
-2 -84 0
-17 -43 0
-17 -47 0
-17 -63 0
-17 -84 0
-43 -47 0
-43 -63 0
-43 -84 0
-47 -63 0
-47 -84 0
-63 -84 0
-3 -16 0
-3 -44 0
-3 -50 0
-3 -61 0
-3 -83 0
-16 -44 0
-16 -50 0
-16 -61 0
-16 -83 0
-44 -50 0
-44 -61 0
-44 -83 0
-50 -61 0
-50 -83 0
-61 -83 0
-10 -23 0
-10 -37 0
-10 -57 0
-10 -72 0
-10 -89 0
-23 -37 0
-23 -57 0
-23 -72 0
-23 -89 0
-37 -57 0
-37 -72 0
-37 -89 0
-57 -72 0
-57 -89 0
-72 -89 0
-5 -27 0
-5 -36 0
-5 -60 0
-5 -74 0
-5 -85 0
-27 -36 0
-27 -60 0
-27 -74 0
-27 -85 0
-36 -60 0
-36 -74 0
-36 -85 0
-60 -74 0
-60 -85 0
-74 -85 0
-12 -24 0
-12 -35 0
-12 -49 0
-12 -65 0
-12 -89 0
-24 -35 0
-24 -49 0
-24 -65 0
-24 -89 0
-35 -49 0
-35 -65 0
-35 -89 0
-49 -65 0
-49 -89 0
-65 -89 0
-9 -17 0
-9 -33 0
-9 -47 0
-9 -69 0
-9 -80 0
-17 -33 0
-17 -47 0
-17 -69 0
-17 -80 0
-33 -47 0
-33 -69 0
-33 -80 0
-47 -69 0
-47 -80 0
-69 -80 0
-3 -29 0
-3 -34 0
-3 -46 0
-3 -73 0
-3 -90 0
-29 -34 0
-29 -46 0
-29 -73 0
-29 -90 0
-34 -46 0
-34 -73 0
-34 -90 0
-46 -73 0
-46 -90 0
-73 -90 0
-11 -20 0
-11 -42 0
-11 -58 0
-11 -69 0
-11 -84 0
-20 -42 0
-20 -58 0
-20 -69 0
-20 -84 0
-42 -58 0
-42 -69 0
-42 -84 0
-58 -69 0
-58 -84 0
-69 -84 0
-2 -21 0
-2 -40 0
-2 -59 0
-2 -69 0
-2 -86 0
-21 -40 0
-21 -59 0
-21 -69 0
-21 -86 0
-40 -59 0
-40 -69 0
-40 -86 0
-59 -69 0
-59 -86 0
-69 -86 0
-14 -19 0
-14 -32 0
-14 -52 0
-14 -62 0
-14 -85 0
-19 -32 0
-19 -52 0
-19 -62 0
-19 -85 0
-32 -52 0
-32 -62 0
-32 -85 0
-52 -62 0
-52 -85 0
-62 -85 0
-4 -29 0
-4 -44 0
-4 -46 0
-4 -66 0
-4 -76 0
-29 -44 0
-29 -46 0
-29 -66 0
-29 -76 0
-44 -46 0
-44 -66 0
-44 -76 0
-46 -66 0
-46 -76 0
-66 -76 0
-10 -28 0
-10 -35 0
-10 -57 0
-10 -68 0
-10 -78 0
-28 -35 0
-28 -57 0
-28 -68 0
-28 -78 0
-35 -57 0
-35 -68 0
-35 -78 0
-57 -68 0
-57 -78 0
-68 -78 0
-15 -28 0
-15 -38 0
-15 -52 0
-15 -74 0
-15 -88 0
-28 -38 0
-28 -52 0
-28 -74 0
-28 -88 0
-38 -52 0
-38 -74 0
-38 -88 0
-52 -74 0
-52 -88 0
-74 -88 0
-15 -27 0
-15 -45 0
-15 -51 0
-15 -67 0
-15 -85 0
-27 -45 0
-27 -51 0
-27 -67 0
-27 -85 0
-45 -51 0
-45 -67 0
-45 -85 0
-51 -67 0
-51 -85 0
-67 -85 0
-7 -18 0
-7 -36 0
-7 -52 0
-7 -67 0
-7 -87 0
-18 -36 0
-18 -52 0
-18 -67 0
-18 -87 0
-36 -52 0
-36 -67 0
-36 -87 0
-52 -67 0
-52 -87 0
-67 -87 0
-6 -16 0
-6 -31 0
-6 -50 0
-6 -66 0
-6 -90 0
-16 -31 0
-16 -50 0
-16 -66 0
-16 -90 0
-31 -50 0
-31 -66 0
-31 -90 0
-50 -66 0
-50 -90 0
-66 -90 0
-6 -29 0
-6 -41 0
-6 -46 0
-6 -75 0
-6 -83 0
-29 -41 0
-29 -46 0
-29 -75 0
-29 -83 0
-41 -46 0
-41 -75 0
-41 -83 0
-46 -75 0
-46 -83 0
-75 -83 0
-9 -25 0
-9 -40 0
-9 -54 0
-9 -71 0
-9 -84 0
-25 -40 0
-25 -54 0
-25 -71 0
-25 -84 0
-40 -54 0
-40 -71 0
-40 -84 0
-54 -71 0
-54 -84 0
-71 -84 0
-11 -17 0
-11 -40 0
-11 -47 0
-11 -64 0
-11 -77 0
-17 -40 0
-17 -47 0
-17 -64 0
-17 -77 0
-40 -47 0
-40 -64 0
-40 -77 0
-47 -64 0
-47 -77 0
-64 -77 0
-8 -16 0
-8 -41 0
-8 -50 0
-8 -73 0
-8 -76 0
-16 -41 0
-16 -50 0
-16 -73 0
-16 -76 0
-41 -50 0
-41 -73 0
-41 -76 0
-50 -73 0
-50 -76 0
-73 -76 0
-5 -27 0
-5 -45 0
-5 -52 0
-5 -70 0
-5 -82 0
-27 -45 0
-27 -52 0
-27 -70 0
-27 -82 0
-45 -52 0
-45 -70 0
-45 -82 0
-52 -70 0
-52 -82 0
-70 -82 0
-4 -22 0
-4 -31 0
-4 -48 0
-4 -73 0
-4 -83 0
-22 -31 0
-22 -48 0
-22 -73 0
-22 -83 0
-31 -48 0
-31 -73 0
-31 -83 0
-48 -73 0
-48 -83 0
-73 -83 0
-8 -29 0
-8 -31 0
-8 -46 0
-8 -61 0
-8 -79 0
-29 -31 0
-29 -46 0
-29 -61 0
-29 -79 0
-31 -46 0
-31 -61 0
-31 -79 0
-46 -61 0
-46 -79 0
-61 -79 0
-13 -25 0
-13 -43 0
-13 -54 0
-13 -69 0
-13 -77 0
-25 -43 0
-25 -54 0
-25 -69 0
-25 -77 0
-43 -54 0
-43 -69 0
-43 -77 0
-54 -69 0
-54 -77 0
-69 -77 0
-15 -26 0
-15 -36 0
-15 -56 0
-15 -62 0
-15 -82 0
-26 -36 0
-26 -56 0
-26 -62 0
-26 -82 0
-36 -56 0
-36 -62 0
-36 -82 0
-56 -62 0
-56 -82 0
-62 -82 0
-2 -20 0
-2 -33 0
-2 -58 0
-2 -71 0
-2 -77 0
-20 -33 0
-20 -58 0
-20 -71 0
-20 -77 0
-33 -58 0
-33 -71 0
-33 -77 0
-58 -71 0
-58 -77 0
-71 -77 0
-1 -28 0
-1 -37 0
-1 -55 0
-1 -65 0
-1 -78 0
-28 -37 0
-28 -55 0
-28 -65 0
-28 -78 0
-37 -55 0
-37 -65 0
-37 -78 0
-55 -65 0
-55 -78 0
-65 -78 0
-14 -19 0
-14 -36 0
-14 -51 0
-14 -70 0
-14 -88 0
-19 -36 0
-19 -51 0
-19 -70 0
-19 -88 0
-36 -51 0
-36 -70 0
-36 -88 0
-51 -70 0
-51 -88 0
-70 -88 0
-6 -30 0
-6 -44 0
-6 -53 0
-6 -73 0
-6 -79 0
-30 -44 0
-30 -53 0
-30 -73 0
-30 -79 0
-44 -53 0
-44 -73 0
-44 -79 0
-53 -73 0
-53 -79 0
-73 -79 0
-12 -23 0
-12 -39 0
-12 -49 0
-12 -72 0
-12 -78 0
-23 -39 0
-23 -49 0
-23 -72 0
-23 -78 0
-39 -49 0
-39 -72 0
-39 -78 0
-49 -72 0
-49 -78 0
-72 -78 0
-5 -27 0
-5 -32 0
-5 -56 0
-5 -67 0
-5 -88 0
-27 -32 0
-27 -56 0
-27 -67 0
-27 -88 0
-32 -56 0
-32 -67 0
-32 -88 0
-56 -67 0
-56 -88 0
-67 -88 0
-9 -20 0
-9 -43 0
-9 -58 0
-9 -64 0
-9 -86 0
-20 -43 0
-20 -58 0
-20 -64 0
-20 -86 0
-43 -58 0
-43 -64 0
-43 -86 0
-58 -64 0
-58 -86 0
-64 -86 0
-4 -30 0
-4 -41 0
-4 -53 0
-4 -61 0
-4 -90 0
-30 -41 0
-30 -53 0
-30 -61 0
-30 -90 0
-41 -53 0
-41 -61 0
-41 -90 0
-53 -61 0
-53 -90 0
-61 -90 0
-7 -18 0
-7 -38 0
-7 -56 0
-7 -70 0
-7 -85 0
-18 -38 0
-18 -56 0
-18 -70 0
-18 -85 0
-38 -56 0
-38 -70 0
-38 -85 0
-56 -70 0
-56 -85 0
-70 -85 0
-6 -22 0
-6 -34 0
-6 -48 0
-6 -61 0
-6 -76 0
-22 -34 0
-22 -48 0
-22 -61 0
-22 -76 0
-34 -48 0
-34 -61 0
-34 -76 0
-48 -61 0
-48 -76 0
-61 -76 0
-13 -17 0
-13 -42 0
-13 -47 0
-13 -71 0
-13 -86 0
-17 -42 0
-17 -47 0
-17 -71 0
-17 -86 0
-42 -47 0
-42 -71 0
-42 -86 0
-47 -71 0
-47 -86 0
-71 -86 0
-1 -23 0
-1 -35 0
-1 -55 0
-1 -72 0
-1 -81 0
-23 -35 0
-23 -55 0
-23 -72 0
-23 -81 0
-35 -55 0
-35 -72 0
-35 -81 0
-55 -72 0
-55 -81 0
-72 -81 0
-4 -16 0
-4 -34 0
-4 -50 0
-4 -75 0
-4 -79 0
-16 -34 0
-16 -50 0
-16 -75 0
-16 -79 0
-34 -50 0
-34 -75 0
-34 -79 0
-50 -75 0
-50 -79 0
-75 -79 0
-13 -21 0
-13 -33 0
-13 -59 0
-13 -64 0
-13 -84 0
-21 -33 0
-21 -59 0
-21 -64 0
-21 -84 0
-33 -59 0
-33 -64 0
-33 -84 0
-59 -64 0
-59 -84 0
-64 -84 0
-11 -21 0
-11 -43 0
-11 -59 0
-11 -71 0
-11 -80 0
-21 -43 0
-21 -59 0
-21 -71 0
-21 -80 0
-43 -59 0
-43 -71 0
-43 -80 0
-59 -71 0
-59 -80 0
-71 -80 0
-11 -25 0
-11 -33 0
-11 -54 0
-11 -63 0
-11 -86 0
-25 -33 0
-25 -54 0
-25 -63 0
-25 -86 0
-33 -54 0
-33 -63 0
-33 -86 0
-54 -63 0
-54 -86 0
-63 -86 0
-9 -21 0
-9 -42 0
-9 -59 0
-9 -63 0
-9 -77 0
-21 -42 0
-21 -59 0
-21 -63 0
-21 -77 0
-42 -59 0
-42 -63 0
-42 -77 0
-59 -63 0
-59 -77 0
-63 -77 0
-8 -22 0
-8 -44 0
-8 -48 0
-8 -75 0
-8 -90 0
-22 -44 0
-22 -48 0
-22 -75 0
-22 -90 0
-44 -48 0
-44 -75 0
-44 -90 0
-48 -75 0
-48 -90 0
-75 -90 0
-13 -20 0
-13 -40 0
-13 -58 0
-13 -63 0
-13 -80 0
-20 -40 0
-20 -58 0
-20 -63 0
-20 -80 0
-40 -58 0
-40 -63 0
-40 -80 0
-58 -63 0
-58 -80 0
-63 -80 0
-10 -24 0
-10 -39 0
-10 -57 0
-10 -65 0
-10 -81 0
-24 -39 0
-24 -57 0
-24 -65 0
-24 -81 0
-39 -57 0
-39 -65 0
-39 -81 0
-57 -65 0
-57 -81 0
-65 -81 0
-7 -18 0
-7 -32 0
-7 -51 0
-7 -74 0
-7 -82 0
-18 -32 0
-18 -51 0
-18 -74 0
-18 -82 0
-32 -51 0
-32 -74 0
-32 -82 0
-51 -74 0
-51 -82 0
-74 -82 0
-3 -30 0
-3 -31 0
-3 -53 0
-3 -75 0
-3 -76 0
-30 -31 0
-30 -53 0
-30 -75 0
-30 -76 0
-31 -53 0
-31 -75 0
-31 -76 0
-53 -75 0
-53 -76 0
-75 -76 0
-14 -19 0
-14 -45 0
-14 -56 0
-14 -74 0
-14 -87 0
-19 -45 0
-19 -56 0
-19 -74 0
-19 -87 0
-45 -56 0
-45 -74 0
-45 -87 0
-56 -74 0
-56 -87 0
-74 -87 0
-8 -30 0
-8 -34 0
-8 -53 0
-8 -66 0
-8 -83 0
-30 -34 0
-30 -53 0
-30 -66 0
-30 -83 0
-34 -53 0
-34 -66 0
-34 -83 0
-53 -66 0
-53 -83 0
-66 -83 0
-2 -25 0
-2 -42 0
-2 -54 0
-2 -64 0
-2 -80 0
-25 -42 0
-25 -54 0
-25 -64 0
-25 -80 0
-42 -54 0
-42 -64 0
-42 -80 0
-54 -64 0
-54 -80 0
-64 -80 0
-7 -18 0
-7 -45 0
-7 -60 0
-7 -62 0
-7 -88 0
-18 -45 0
-18 -60 0
-18 -62 0
-18 -88 0
-45 -60 0
-45 -62 0
-45 -88 0
-60 -62 0
-60 -88 0
-62 -88 0
-15 -21 0
-15 -32 0
-15 -60 0
-15 -70 0
-15 -87 0
-21 -32 0
-21 -60 0
-21 -70 0
-21 -87 0
-32 -60 0
-32 -70 0
-32 -87 0
-60 -70 0
-60 -87 0
-70 -87 0
-3 -22 0
-3 -41 0
-3 -48 0
-3 -66 0
-3 -79 0
-22 -41 0
-22 -48 0
-22 -66 0
-22 -79 0
-41 -48 0
-41 -66 0
-41 -79 0
-48 -66 0
-48 -79 0
-66 -79 0
-12 -26 0
-12 -37 0
-12 -49 0
-12 -68 0
-12 -81 0
-26 -37 0
-26 -49 0
-26 -68 0
-26 -81 0
-37 -49 0
-37 -68 0
-37 -81 0
-49 -68 0
-49 -81 0
-68 -81 0
-5 -27 0
-5 -38 0
-5 -51 0
-5 -62 0
-5 -87 0
-27 -38 0
-27 -51 0
-27 -62 0
-27 -87 0
-38 -51 0
-38 -62 0
-38 -87 0
-51 -62 0
-51 -87 0
-62 -87 0
