p cnf 48 459
1 2 3 4 5 6 7 8 0
-1 -2 0
-1 -3 0
-1 -4 0
-1 -5 0
-1 -6 0
-1 -7 0
-1 -8 0
-2 -3 0
-2 -4 0
-2 -5 0
-2 -6 0
-2 -7 0
-2 -8 0
-3 -4 0
-3 -5 0
-3 -6 0
-3 -7 0
-3 -8 0
-4 -5 0
-4 -6 0
-4 -7 0
-4 -8 0
-5 -6 0
-5 -7 0
-5 -8 0
-6 -7 0
-6 -8 0
-7 -8 0
9 10 11 12 13 14 15 16 0
-9 -10 0
-9 -11 0
-9 -12 0
-9 -13 0
-9 -14 0
-9 -15 0
-9 -16 0
-10 -11 0
-10 -12 0
-10 -13 0
-10 -14 0
-10 -15 0
-10 -16 0
-11 -12 0
-11 -13 0
-11 -14 0
-11 -15 0
-11 -16 0
-12 -13 0
-12 -14 0
-12 -15 0
-12 -16 0
-13 -14 0
-13 -15 0
-13 -16 0
-14 -15 0
-14 -16 0
-15 -16 0
17 18 19 20 21 22 23 24 0
-17 -18 0
-17 -19 0
-17 -20 0
-17 -21 0
-17 -22 0
-17 -23 0
-17 -24 0
-18 -19 0
-18 -20 0
-18 -21 0
-18 -22 0
-18 -23 0
-18 -24 0
-19 -20 0
-19 -21 0
-19 -22 0
-19 -23 0
-19 -24 0
-20 -21 0
-20 -22 0
-20 -23 0
-20 -24 0
-21 -22 0
-21 -23 0
-21 -24 0
-22 -23 0
-22 -24 0
-23 -24 0
25 26 27 28 29 30 31 32 0
-25 -26 0
-25 -27 0
-25 -28 0
-25 -29 0
-25 -30 0
-25 -31 0
-25 -32 0
-26 -27 0
-26 -28 0
-26 -29 0
-26 -30 0
-26 -31 0
-26 -32 0
-27 -28 0
-27 -29 0
-27 -30 0
-27 -31 0
-27 -32 0
-28 -29 0
-28 -30 0
-28 -31 0
-28 -32 0
-29 -30 0
-29 -31 0
-29 -32 0
-30 -31 0
-30 -32 0
-31 -32 0
33 34 35 36 37 38 39 40 0
-33 -34 0
-33 -35 0
-33 -36 0
-33 -37 0
-33 -38 0
-33 -39 0
-33 -40 0
-34 -35 0
-34 -36 0
-34 -37 0
-34 -38 0
-34 -39 0
-34 -40 0
-35 -36 0
-35 -37 0
-35 -38 0
-35 -39 0
-35 -40 0
-36 -37 0
-36 -38 0
-36 -39 0
-36 -40 0
-37 -38 0
-37 -39 0
-37 -40 0
-38 -39 0
-38 -40 0
-39 -40 0
41 42 43 44 45 46 47 48 0
-41 -42 0
-41 -43 0
-41 -44 0
-41 -45 0
-41 -46 0
-41 -47 0
-41 -48 0
-42 -43 0
-42 -44 0
-42 -45 0
-42 -46 0
-42 -47 0
-42 -48 0
-43 -44 0
-43 -45 0
-43 -46 0
-43 -47 0
-43 -48 0
-44 -45 0
-44 -46 0
-44 -47 0
-44 -48 0
-45 -46 0
-45 -47 0
-45 -48 0
-46 -47 0
-46 -48 0
-47 -48 0
-1 -13 0
-1 -20 0
-1 -32 0
-1 -37 0
-1 -46 0
-13 -20 0
-13 -32 0
-13 -37 0
-13 -46 0
-20 -32 0
-20 -37 0
-20 -46 0
-32 -37 0
-32 -46 0
-37 -46 0
-7 -9 0
-7 -24 0
-7 -27 0
-7 -37 0
-7 -47 0
-9 -24 0
-9 -27 0
-9 -37 0
-9 -47 0
-24 -27 0
-24 -37 0
-24 -47 0
-27 -37 0
-27 -47 0
-37 -47 0
-1 -9 0
-1 -23 0
-1 -27 0
-1 -35 0
-1 -48 0
-9 -23 0
-9 -27 0
-9 -35 0
-9 -48 0
-23 -27 0
-23 -35 0
-23 -48 0
-27 -35 0
-27 -48 0
-35 -48 0
-2 -15 0
-2 -18 0
-2 -29 0
-2 -40 0
-2 -41 0
-15 -18 0
-15 -29 0
-15 -40 0
-15 -41 0
-18 -29 0
-18 -40 0
-18 -41 0
-29 -40 0
-29 -41 0
-40 -41 0
-5 -15 0
-5 -17 0
-5 -29 0
-5 -33 0
-5 -43 0
-15 -17 0
-15 -29 0
-15 -33 0
-15 -43 0
-17 -29 0
-17 -33 0
-17 -43 0
-29 -33 0
-29 -43 0
-33 -43 0
-3 -14 0
-3 -18 0
-3 -31 0
-3 -34 0
-3 -43 0
-14 -18 0
-14 -31 0
-14 -34 0
-14 -43 0
-18 -31 0
-18 -34 0
-18 -43 0
-31 -34 0
-31 -43 0
-34 -43 0
-6 -10 0
-6 -21 0
-6 -31 0
-6 -38 0
-6 -45 0
-10 -21 0
-10 -31 0
-10 -38 0
-10 -45 0
-21 -31 0
-21 -38 0
-21 -45 0
-31 -38 0
-31 -45 0
-38 -45 0
-5 -15 0
-5 -21 0
-5 -30 0
-5 -40 0
-5 -45 0
-15 -21 0
-15 -30 0
-15 -40 0
-15 -45 0
-21 -30 0
-21 -40 0
-21 -45 0
-30 -40 0
-30 -45 0
-40 -45 0
-4 -16 0
-4 -20 0
-4 -26 0
-4 -39 0
-4 -42 0
-16 -20 0
-16 -26 0
-16 -39 0
-16 -42 0
-20 -26 0
-20 -39 0
-20 -42 0
-26 -39 0
-26 -42 0
-39 -42 0
-5 -12 0
-5 -18 0
-5 -30 0
-5 -33 0
-5 -41 0
-12 -18 0
-12 -30 0
-12 -33 0
-12 -41 0
-18 -30 0
-18 -33 0
-18 -41 0
-30 -33 0
-30 -41 0
-33 -41 0
-8 -16 0
-8 -22 0
-8 -26 0
-8 -36 0
-8 -46 0
-16 -22 0
-16 -26 0
-16 -36 0
-16 -46 0
-22 -26 0
-22 -36 0
-22 -46 0
-26 -36 0
-26 -46 0
-36 -46 0
-8 -11 0
-8 -23 0
-8 -25 0
-8 -39 0
-8 -47 0
-11 -23 0
-11 -25 0
-11 -39 0
-11 -47 0
-23 -25 0
-23 -39 0
-23 -47 0
-25 -39 0
-25 -47 0
-39 -47 0
-7 -13 0
-7 -22 0
-7 -32 0
-7 -35 0
-7 -42 0
-13 -22 0
-13 -32 0
-13 -35 0
-13 -42 0
-22 -32 0
-22 -35 0
-22 -42 0
-32 -35 0
-32 -42 0
-35 -42 0
-3 -10 0
-3 -19 0
-3 -31 0
-3 -34 0
-3 -44 0
-10 -19 0
-10 -31 0
-10 -34 0
-10 -44 0
-19 -31 0
-19 -34 0
-19 -44 0
-31 -34 0
-31 -44 0
-34 -44 0
-4 -11 0
-4 -24 0
-4 -25 0
-4 -36 0
-4 -48 0
-11 -24 0
-11 -25 0
-11 -36 0
-11 -48 0
-24 -25 0
-24 -36 0
-24 -48 0
-25 -36 0
-25 -48 0
-36 -48 0
-3 -10 0
-3 -17 0
-3 -28 0
-3 -34 0
-3 -41 0
-10 -17 0
-10 -28 0
-10 -34 0
-10 -41 0
-17 -28 0
-17 -34 0
-17 -41 0
-28 -34 0
-28 -41 0
-34 -41 0
-2 -12 0
-2 -21 0
-2 -29 0
-2 -33 0
-2 -45 0
-12 -21 0
-12 -29 0
-12 -33 0
-12 -45 0
-21 -29 0
-21 -33 0
-21 -45 0
-29 -33 0
-29 -45 0
-33 -45 0
-6 -14 0
-6 -19 0
-6 -28 0
-6 -38 0
-6 -44 0
-14 -19 0
-14 -28 0
-14 -38 0
-14 -44 0
-19 -28 0
-19 -38 0
-19 -44 0
-28 -38 0
-28 -44 0
-38 -44 0
-2 -12 0
-2 -17 0
-2 -30 0
-2 -40 0
-2 -43 0
-12 -17 0
-12 -30 0
-12 -40 0
-12 -43 0
-17 -30 0
-17 -40 0
-17 -43 0
-30 -40 0
-30 -43 0
-40 -43 0
