p cnf 72 987
1 2 3 4 5 6 7 8 9 10 11 12 0
-1 -2 0
-1 -3 0
-1 -4 0
-1 -5 0
-1 -6 0
-1 -7 0
-1 -8 0
-1 -9 0
-1 -10 0
-1 -11 0
-1 -12 0
-2 -3 0
-2 -4 0
-2 -5 0
-2 -6 0
-2 -7 0
-2 -8 0
-2 -9 0
-2 -10 0
-2 -11 0
-2 -12 0
-3 -4 0
-3 -5 0
-3 -6 0
-3 -7 0
-3 -8 0
-3 -9 0
-3 -10 0
-3 -11 0
-3 -12 0
-4 -5 0
-4 -6 0
-4 -7 0
-4 -8 0
-4 -9 0
-4 -10 0
-4 -11 0
-4 -12 0
-5 -6 0
-5 -7 0
-5 -8 0
-5 -9 0
-5 -10 0
-5 -11 0
-5 -12 0
-6 -7 0
-6 -8 0
-6 -9 0
-6 -10 0
-6 -11 0
-6 -12 0
-7 -8 0
-7 -9 0
-7 -10 0
-7 -11 0
-7 -12 0
-8 -9 0
-8 -10 0
-8 -11 0
-8 -12 0
-9 -10 0
-9 -11 0
-9 -12 0
-10 -11 0
-10 -12 0
-11 -12 0
13 14 15 16 17 18 19 20 21 22 23 24 0
-13 -14 0
-13 -15 0
-13 -16 0
-13 -17 0
-13 -18 0
-13 -19 0
-13 -20 0
-13 -21 0
-13 -22 0
-13 -23 0
-13 -24 0
-14 -15 0
-14 -16 0
-14 -17 0
-14 -18 0
-14 -19 0
-14 -20 0
-14 -21 0
-14 -22 0
-14 -23 0
-14 -24 0
-15 -16 0
-15 -17 0
-15 -18 0
-15 -19 0
-15 -20 0
-15 -21 0
-15 -22 0
-15 -23 0
-15 -24 0
-16 -17 0
-16 -18 0
-16 -19 0
-16 -20 0
-16 -21 0
-16 -22 0
-16 -23 0
-16 -24 0
-17 -18 0
-17 -19 0
-17 -20 0
-17 -21 0
-17 -22 0
-17 -23 0
-17 -24 0
-18 -19 0
-18 -20 0
-18 -21 0
-18 -22 0
-18 -23 0
-18 -24 0
-19 -20 0
-19 -21 0
-19 -22 0
-19 -23 0
-19 -24 0
-20 -21 0
-20 -22 0
-20 -23 0
-20 -24 0
-21 -22 0
-21 -23 0
-21 -24 0
-22 -23 0
-22 -24 0
-23 -24 0
25 26 27 28 29 30 31 32 33 34 35 36 0
-25 -26 0
-25 -27 0
-25 -28 0
-25 -29 0
-25 -30 0
-25 -31 0
-25 -32 0
-25 -33 0
-25 -34 0
-25 -35 0
-25 -36 0
-26 -27 0
-26 -28 0
-26 -29 0
-26 -30 0
-26 -31 0
-26 -32 0
-26 -33 0
-26 -34 0
-26 -35 0
-26 -36 0
-27 -28 0
-27 -29 0
-27 -30 0
-27 -31 0
-27 -32 0
-27 -33 0
-27 -34 0
-27 -35 0
-27 -36 0
-28 -29 0
-28 -30 0
-28 -31 0
-28 -32 0
-28 -33 0
-28 -34 0
-28 -35 0
-28 -36 0
-29 -30 0
-29 -31 0
-29 -32 0
-29 -33 0
-29 -34 0
-29 -35 0
-29 -36 0
-30 -31 0
-30 -32 0
-30 -33 0
-30 -34 0
-30 -35 0
-30 -36 0
-31 -32 0
-31 -33 0
-31 -34 0
-31 -35 0
-31 -36 0
-32 -33 0
-32 -34 0
-32 -35 0
-32 -36 0
-33 -34 0
-33 -35 0
-33 -36 0
-34 -35 0
-34 -36 0
-35 -36 0
37 38 39 40 41 42 43 44 45 46 47 48 0
-37 -38 0
-37 -39 0
-37 -40 0
-37 -41 0
-37 -42 0
-37 -43 0
-37 -44 0
-37 -45 0
-37 -46 0
-37 -47 0
-37 -48 0
-38 -39 0
-38 -40 0
-38 -41 0
-38 -42 0
-38 -43 0
-38 -44 0
-38 -45 0
-38 -46 0
-38 -47 0
-38 -48 0
-39 -40 0
-39 -41 0
-39 -42 0
-39 -43 0
-39 -44 0
-39 -45 0
-39 -46 0
-39 -47 0
-39 -48 0
-40 -41 0
-40 -42 0
-40 -43 0
-40 -44 0
-40 -45 0
-40 -46 0
-40 -47 0
-40 -48 0
-41 -42 0
-41 -43 0
-41 -44 0
-41 -45 0
-41 -46 0
-41 -47 0
-41 -48 0
-42 -43 0
-42 -44 0
-42 -45 0
-42 -46 0
-42 -47 0
-42 -48 0
-43 -44 0
-43 -45 0
-43 -46 0
-43 -47 0
-43 -48 0
-44 -45 0
-44 -46 0
-44 -47 0
-44 -48 0
-45 -46 0
-45 -47 0
-45 -48 0
-46 -47 0
-46 -48 0
-47 -48 0
49 50 51 52 53 54 55 56 57 58 59 60 0
-49 -50 0
-49 -51 0
-49 -52 0
-49 -53 0
-49 -54 0
-49 -55 0
-49 -56 0
-49 -57 0
-49 -58 0
-49 -59 0
-49 -60 0
-50 -51 0
-50 -52 0
-50 -53 0
-50 -54 0
-50 -55 0
-50 -56 0
-50 -57 0
-50 -58 0
-50 -59 0
-50 -60 0
-51 -52 0
-51 -53 0
-51 -54 0
-51 -55 0
-51 -56 0
-51 -57 0
-51 -58 0
-51 -59 0
-51 -60 0
-52 -53 0
-52 -54 0
-52 -55 0
-52 -56 0
-52 -57 0
-52 -58 0
-52 -59 0
-52 -60 0
-53 -54 0
-53 -55 0
-53 -56 0
-53 -57 0
-53 -58 0
-53 -59 0
-53 -60 0
-54 -55 0
-54 -56 0
-54 -57 0
-54 -58 0
-54 -59 0
-54 -60 0
-55 -56 0
-55 -57 0
-55 -58 0
-55 -59 0
-55 -60 0
-56 -57 0
-56 -58 0
-56 -59 0
-56 -60 0
-57 -58 0
-57 -59 0
-57 -60 0
-58 -59 0
-58 -60 0
-59 -60 0
61 62 63 64 65 66 67 68 69 70 71 72 0
-61 -62 0
-61 -63 0
-61 -64 0
-61 -65 0
-61 -66 0
-61 -67 0
-61 -68 0
-61 -69 0
-61 -70 0
-61 -71 0
-61 -72 0
-62 -63 0
-62 -64 0
-62 -65 0
-62 -66 0
-62 -67 0
-62 -68 0
-62 -69 0
-62 -70 0
-62 -71 0
-62 -72 0
-63 -64 0
-63 -65 0
-63 -66 0
-63 -67 0
-63 -68 0
-63 -69 0
-63 -70 0
-63 -71 0
-63 -72 0
-64 -65 0
-64 -66 0
-64 -67 0
-64 -68 0
-64 -69 0
-64 -70 0
-64 -71 0
-64 -72 0
-65 -66 0
-65 -67 0
-65 -68 0
-65 -69 0
-65 -70 0
-65 -71 0
-65 -72 0
-66 -67 0
-66 -68 0
-66 -69 0
-66 -70 0
-66 -71 0
-66 -72 0
-67 -68 0
-67 -69 0
-67 -70 0
-67 -71 0
-67 -72 0
-68 -69 0
-68 -70 0
-68 -71 0
-68 -72 0
-69 -70 0
-69 -71 0
-69 -72 0
-70 -71 0
-70 -72 0
-71 -72 0
-5 -21 0
-5 -36 0
-5 -42 0
-5 -52 0
-5 -61 0
-21 -36 0
-21 -42 0
-21 -52 0
-21 -61 0
-36 -42 0
-36 -52 0
-36 -61 0
-42 -52 0
-42 -61 0
-52 -61 0
-6 -17 0
-6 -35 0
-6 -39 0
-6 -51 0
-6 -71 0
-17 -35 0
-17 -39 0
-17 -51 0
-17 -71 0
-35 -39 0
-35 -51 0
-35 -71 0
-39 -51 0
-39 -71 0
-51 -71 0
-7 -24 0
-7 -27 0
-7 -46 0
-7 -56 0
-7 -67 0
-24 -27 0
-24 -46 0
-24 -56 0
-24 -67 0
-27 -46 0
-27 -56 0
-27 -67 0
-46 -56 0
-46 -67 0
-56 -67 0
-1 -20 0
-1 -28 0
-1 -40 0
-1 -60 0
-1 -64 0
-20 -28 0
-20 -40 0
-20 -60 0
-20 -64 0
-28 -40 0
-28 -60 0
-28 -64 0
-40 -60 0
-40 -64 0
-60 -64 0
-6 -19 0
-6 -34 0
-6 -43 0
-6 -54 0
-6 -71 0
-19 -34 0
-19 -43 0
-19 -54 0
-19 -71 0
-34 -43 0
-34 -54 0
-34 -71 0
-43 -54 0
-43 -71 0
-54 -71 0
-10 -19 0
-10 -35 0
-10 -43 0
-10 -50 0
-10 -63 0
-19 -35 0
-19 -43 0
-19 -50 0
-19 -63 0
-35 -43 0
-35 -50 0
-35 -63 0
-43 -50 0
-43 -63 0
-50 -63 0
-3 -15 0
-3 -28 0
-3 -37 0
-3 -55 0
-3 -64 0
-15 -28 0
-15 -37 0
-15 -55 0
-15 -64 0
-28 -37 0
-28 -55 0
-28 -64 0
-37 -55 0
-37 -64 0
-55 -64 0
-7 -18 0
-7 -29 0
-7 -38 0
-7 -49 0
-7 -72 0
-18 -29 0
-18 -38 0
-18 -49 0
-18 -72 0
-29 -38 0
-29 -49 0
-29 -72 0
-38 -49 0
-38 -72 0
-49 -72 0
-9 -21 0
-9 -36 0
-9 -48 0
-9 -57 0
-9 -62 0
-21 -36 0
-21 -48 0
-21 -57 0
-21 -62 0
-36 -48 0
-36 -57 0
-36 -62 0
-48 -57 0
-48 -62 0
-57 -62 0
-2 -15 0
-2 -26 0
-2 -40 0
-2 -55 0
-2 -66 0
-15 -26 0
-15 -40 0
-15 -55 0
-15 -66 0
-26 -40 0
-26 -55 0
-26 -66 0
-40 -55 0
-40 -66 0
-55 -66 0
-3 -20 0
-3 -26 0
-3 -44 0
-3 -60 0
-3 -66 0
-20 -26 0
-20 -44 0
-20 -60 0
-20 -66 0
-26 -44 0
-26 -60 0
-26 -66 0
-44 -60 0
-44 -66 0
-60 -66 0
-8 -22 0
-8 -29 0
-8 -46 0
-8 -49 0
-8 -70 0
-22 -29 0
-22 -46 0
-22 -49 0
-22 -70 0
-29 -46 0
-29 -49 0
-29 -70 0
-46 -49 0
-46 -70 0
-49 -70 0
-6 -17 0
-6 -32 0
-6 -41 0
-6 -50 0
-6 -63 0
-17 -32 0
-17 -41 0
-17 -50 0
-17 -63 0
-32 -41 0
-32 -50 0
-32 -63 0
-41 -50 0
-41 -63 0
-50 -63 0
-7 -22 0
-7 -25 0
-7 -45 0
-7 -59 0
-7 -70 0
-22 -25 0
-22 -45 0
-22 -59 0
-22 -70 0
-25 -45 0
-25 -59 0
-25 -70 0
-45 -59 0
-45 -70 0
-59 -70 0
-10 -17 0
-10 -34 0
-10 -39 0
-10 -54 0
-10 -63 0
-17 -34 0
-17 -39 0
-17 -54 0
-17 -63 0
-34 -39 0
-34 -54 0
-34 -63 0
-39 -54 0
-39 -63 0
-54 -63 0
-9 -23 0
-9 -30 0
-9 -42 0
-9 -53 0
-9 -65 0
-23 -30 0
-23 -42 0
-23 -53 0
-23 -65 0
-30 -42 0
-30 -53 0
-30 -65 0
-42 -53 0
-42 -65 0
-53 -65 0
-4 -17 0
-4 -32 0
-4 -43 0
-4 -54 0
-4 -68 0
-17 -32 0
-17 -43 0
-17 -54 0
-17 -68 0
-32 -43 0
-32 -54 0
-32 -68 0
-43 -54 0
-43 -68 0
-54 -68 0
-12 -18 0
-12 -25 0
-12 -46 0
-12 -59 0
-12 -72 0
-18 -25 0
-18 -46 0
-18 -59 0
-18 -72 0
-25 -46 0
-25 -59 0
-25 -72 0
-46 -59 0
-46 -72 0
-59 -72 0
-3 -14 0
-3 -33 0
-3 -40 0
-3 -58 0
-3 -69 0
-14 -33 0
-14 -40 0
-14 -58 0
-14 -69 0
-33 -40 0
-33 -58 0
-33 -69 0
-40 -58 0
-40 -69 0
-58 -69 0
-2 -20 0
-2 -33 0
-2 -37 0
-2 -60 0
-2 -69 0
-20 -33 0
-20 -37 0
-20 -60 0
-20 -69 0
-33 -37 0
-33 -60 0
-33 -69 0
-37 -60 0
-37 -69 0
-60 -69 0
-11 -13 0
-11 -31 0
-11 -42 0
-11 -57 0
-11 -62 0
-13 -31 0
-13 -42 0
-13 -57 0
-13 -62 0
-31 -42 0
-31 -57 0
-31 -62 0
-42 -57 0
-42 -62 0
-57 -62 0
-1 -14 0
-1 -26 0
-1 -37 0
-1 -58 0
-1 -66 0
-14 -26 0
-14 -37 0
-14 -58 0
-14 -66 0
-26 -37 0
-26 -58 0
-26 -66 0
-37 -58 0
-37 -66 0
-58 -66 0
-2 -14 0
-2 -28 0
-2 -44 0
-2 -58 0
-2 -64 0
-14 -28 0
-14 -44 0
-14 -58 0
-14 -64 0
-28 -44 0
-28 -58 0
-28 -64 0
-44 -58 0
-44 -64 0
-58 -64 0
-5 -23 0
-5 -30 0
-5 -47 0
-5 -57 0
-5 -62 0
-23 -30 0
-23 -47 0
-23 -57 0
-23 -62 0
-30 -47 0
-30 -57 0
-30 -62 0
-47 -57 0
-47 -62 0
-57 -62 0
-1 -15 0
-1 -33 0
-1 -44 0
-1 -55 0
-1 -69 0
-15 -33 0
-15 -44 0
-15 -55 0
-15 -69 0
-33 -44 0
-33 -55 0
-33 -69 0
-44 -55 0
-44 -69 0
-55 -69 0
-4 -19 0
-4 -32 0
-4 -39 0
-4 -50 0
-4 -71 0
-19 -32 0
-19 -39 0
-19 -50 0
-19 -71 0
-32 -39 0
-32 -50 0
-32 -71 0
-39 -50 0
-39 -71 0
-50 -71 0
-10 -16 0
-10 -32 0
-10 -43 0
-10 -51 0
-10 -71 0
-16 -32 0
-16 -43 0
-16 -51 0
-16 -71 0
-32 -43 0
-32 -51 0
-32 -71 0
-43 -51 0
-43 -71 0
-51 -71 0
-8 -24 0
-8 -25 0
-8 -38 0
-8 -59 0
-8 -67 0
-24 -25 0
-24 -38 0
-24 -59 0
-24 -67 0
-25 -38 0
-25 -59 0
-25 -67 0
-38 -59 0
-38 -67 0
-59 -67 0
-11 -21 0
-11 -36 0
-11 -47 0
-11 -53 0
-11 -65 0
-21 -36 0
-21 -47 0
-21 -53 0
-21 -65 0
-36 -47 0
-36 -53 0
-36 -65 0
-47 -53 0
-47 -65 0
-53 -65 0
-12 -22 0
-12 -27 0
-12 -38 0
-12 -56 0
-12 -70 0
-22 -27 0
-22 -38 0
-22 -56 0
-22 -70 0
-27 -38 0
-27 -56 0
-27 -70 0
-38 -56 0
-38 -70 0
-56 -70 0
-11 -23 0
-11 -30 0
-11 -48 0
-11 -52 0
-11 -61 0
-23 -30 0
-23 -48 0
-23 -52 0
-23 -61 0
-30 -48 0
-30 -52 0
-30 -61 0
-48 -52 0
-48 -61 0
-52 -61 0
-4 -16 0
-4 -35 0
-4 -41 0
-4 -54 0
-4 -71 0
-16 -35 0
-16 -41 0
-16 -54 0
-16 -71 0
-35 -41 0
-35 -54 0
-35 -71 0
-41 -54 0
-41 -71 0
-54 -71 0
-12 -24 0
-12 -29 0
-12 -45 0
-12 -49 0
-12 -67 0
-24 -29 0
-24 -45 0
-24 -49 0
-24 -67 0
-29 -45 0
-29 -49 0
-29 -67 0
-45 -49 0
-45 -67 0
-49 -67 0
-8 -18 0
-8 -27 0
-8 -45 0
-8 -56 0
-8 -72 0
-18 -27 0
-18 -45 0
-18 -56 0
-18 -72 0
-27 -45 0
-27 -56 0
-27 -72 0
-45 -56 0
-45 -72 0
-56 -72 0
-10 -19 0
-10 -35 0
-10 -41 0
-10 -51 0
-10 -68 0
-19 -35 0
-19 -41 0
-19 -51 0
-19 -68 0
-35 -41 0
-35 -51 0
-35 -68 0
-41 -51 0
-41 -68 0
-51 -68 0
-4 -16 0
-4 -34 0
-4 -41 0
-4 -51 0
-4 -63 0
-16 -34 0
-16 -41 0
-16 -51 0
-16 -63 0
-34 -41 0
-34 -51 0
-34 -63 0
-41 -51 0
-41 -63 0
-51 -63 0
-6 -16 0
-6 -34 0
-6 -39 0
-6 -50 0
-6 -68 0
-16 -34 0
-16 -39 0
-16 -50 0
-16 -68 0
-34 -39 0
-34 -50 0
-34 -68 0
-39 -50 0
-39 -68 0
-50 -68 0
-9 -13 0
-9 -31 0
-9 -47 0
-9 -52 0
-9 -61 0
-13 -31 0
-13 -47 0
-13 -52 0
-13 -61 0
-31 -47 0
-31 -52 0
-31 -61 0
-47 -52 0
-47 -61 0
-52 -61 0
-5 -13 0
-5 -31 0
-5 -48 0
-5 -53 0
-5 -65 0
-13 -31 0
-13 -48 0
-13 -53 0
-13 -65 0
-31 -48 0
-31 -53 0
-31 -65 0
-48 -53 0
-48 -65 0
-53 -65 0
