p cnf 84 1302
1 2 3 4 5 6 7 8 9 10 11 12 13 14 0
-1 -2 0
-1 -3 0
-1 -4 0
-1 -5 0
-1 -6 0
-1 -7 0
-1 -8 0
-1 -9 0
-1 -10 0
-1 -11 0
-1 -12 0
-1 -13 0
-1 -14 0
-2 -3 0
-2 -4 0
-2 -5 0
-2 -6 0
-2 -7 0
-2 -8 0
-2 -9 0
-2 -10 0
-2 -11 0
-2 -12 0
-2 -13 0
-2 -14 0
-3 -4 0
-3 -5 0
-3 -6 0
-3 -7 0
-3 -8 0
-3 -9 0
-3 -10 0
-3 -11 0
-3 -12 0
-3 -13 0
-3 -14 0
-4 -5 0
-4 -6 0
-4 -7 0
-4 -8 0
-4 -9 0
-4 -10 0
-4 -11 0
-4 -12 0
-4 -13 0
-4 -14 0
-5 -6 0
-5 -7 0
-5 -8 0
-5 -9 0
-5 -10 0
-5 -11 0
-5 -12 0
-5 -13 0
-5 -14 0
-6 -7 0
-6 -8 0
-6 -9 0
-6 -10 0
-6 -11 0
-6 -12 0
-6 -13 0
-6 -14 0
-7 -8 0
-7 -9 0
-7 -10 0
-7 -11 0
-7 -12 0
-7 -13 0
-7 -14 0
-8 -9 0
-8 -10 0
-8 -11 0
-8 -12 0
-8 -13 0
-8 -14 0
-9 -10 0
-9 -11 0
-9 -12 0
-9 -13 0
-9 -14 0
-10 -11 0
-10 -12 0
-10 -13 0
-10 -14 0
-11 -12 0
-11 -13 0
-11 -14 0
-12 -13 0
-12 -14 0
-13 -14 0
15 16 17 18 19 20 21 22 23 24 25 26 27 28 0
-15 -16 0
-15 -17 0
-15 -18 0
-15 -19 0
-15 -20 0
-15 -21 0
-15 -22 0
-15 -23 0
-15 -24 0
-15 -25 0
-15 -26 0
-15 -27 0
-15 -28 0
-16 -17 0
-16 -18 0
-16 -19 0
-16 -20 0
-16 -21 0
-16 -22 0
-16 -23 0
-16 -24 0
-16 -25 0
-16 -26 0
-16 -27 0
-16 -28 0
-17 -18 0
-17 -19 0
-17 -20 0
-17 -21 0
-17 -22 0
-17 -23 0
-17 -24 0
-17 -25 0
-17 -26 0
-17 -27 0
-17 -28 0
-18 -19 0
-18 -20 0
-18 -21 0
-18 -22 0
-18 -23 0
-18 -24 0
-18 -25 0
-18 -26 0
-18 -27 0
-18 -28 0
-19 -20 0
-19 -21 0
-19 -22 0
-19 -23 0
-19 -24 0
-19 -25 0
-19 -26 0
-19 -27 0
-19 -28 0
-20 -21 0
-20 -22 0
-20 -23 0
-20 -24 0
-20 -25 0
-20 -26 0
-20 -27 0
-20 -28 0
-21 -22 0
-21 -23 0
-21 -24 0
-21 -25 0
-21 -26 0
-21 -27 0
-21 -28 0
-22 -23 0
-22 -24 0
-22 -25 0
-22 -26 0
-22 -27 0
-22 -28 0
-23 -24 0
-23 -25 0
-23 -26 0
-23 -27 0
-23 -28 0
-24 -25 0
-24 -26 0
-24 -27 0
-24 -28 0
-25 -26 0
-25 -27 0
-25 -28 0
-26 -27 0
-26 -28 0
-27 -28 0
29 30 31 32 33 34 35 36 37 38 39 40 41 42 0
-29 -30 0
-29 -31 0
-29 -32 0
-29 -33 0
-29 -34 0
-29 -35 0
-29 -36 0
-29 -37 0
-29 -38 0
-29 -39 0
-29 -40 0
-29 -41 0
-29 -42 0
-30 -31 0
-30 -32 0
-30 -33 0
-30 -34 0
-30 -35 0
-30 -36 0
-30 -37 0
-30 -38 0
-30 -39 0
-30 -40 0
-30 -41 0
-30 -42 0
-31 -32 0
-31 -33 0
-31 -34 0
-31 -35 0
-31 -36 0
-31 -37 0
-31 -38 0
-31 -39 0
-31 -40 0
-31 -41 0
-31 -42 0
-32 -33 0
-32 -34 0
-32 -35 0
-32 -36 0
-32 -37 0
-32 -38 0
-32 -39 0
-32 -40 0
-32 -41 0
-32 -42 0
-33 -34 0
-33 -35 0
-33 -36 0
-33 -37 0
-33 -38 0
-33 -39 0
-33 -40 0
-33 -41 0
-33 -42 0
-34 -35 0
-34 -36 0
-34 -37 0
-34 -38 0
-34 -39 0
-34 -40 0
-34 -41 0
-34 -42 0
-35 -36 0
-35 -37 0
-35 -38 0
-35 -39 0
-35 -40 0
-35 -41 0
-35 -42 0
-36 -37 0
-36 -38 0
-36 -39 0
-36 -40 0
-36 -41 0
-36 -42 0
-37 -38 0
-37 -39 0
-37 -40 0
-37 -41 0
-37 -42 0
-38 -39 0
-38 -40 0
-38 -41 0
-38 -42 0
-39 -40 0
-39 -41 0
-39 -42 0
-40 -41 0
-40 -42 0
-41 -42 0
43 44 45 46 47 48 49 50 51 52 53 54 55 56 0
-43 -44 0
-43 -45 0
-43 -46 0
-43 -47 0
-43 -48 0
-43 -49 0
-43 -50 0
-43 -51 0
-43 -52 0
-43 -53 0
-43 -54 0
-43 -55 0
-43 -56 0
-44 -45 0
-44 -46 0
-44 -47 0
-44 -48 0
-44 -49 0
-44 -50 0
-44 -51 0
-44 -52 0
-44 -53 0
-44 -54 0
-44 -55 0
-44 -56 0
-45 -46 0
-45 -47 0
-45 -48 0
-45 -49 0
-45 -50 0
-45 -51 0
-45 -52 0
-45 -53 0
-45 -54 0
-45 -55 0
-45 -56 0
-46 -47 0
-46 -48 0
-46 -49 0
-46 -50 0
-46 -51 0
-46 -52 0
-46 -53 0
-46 -54 0
-46 -55 0
-46 -56 0
-47 -48 0
-47 -49 0
-47 -50 0
-47 -51 0
-47 -52 0
-47 -53 0
-47 -54 0
-47 -55 0
-47 -56 0
-48 -49 0
-48 -50 0
-48 -51 0
-48 -52 0
-48 -53 0
-48 -54 0
-48 -55 0
-48 -56 0
-49 -50 0
-49 -51 0
-49 -52 0
-49 -53 0
-49 -54 0
-49 -55 0
-49 -56 0
-50 -51 0
-50 -52 0
-50 -53 0
-50 -54 0
-50 -55 0
-50 -56 0
-51 -52 0
-51 -53 0
-51 -54 0
-51 -55 0
-51 -56 0
-52 -53 0
-52 -54 0
-52 -55 0
-52 -56 0
-53 -54 0
-53 -55 0
-53 -56 0
-54 -55 0
-54 -56 0
-55 -56 0
57 58 59 60 61 62 63 64 65 66 67 68 69 70 0
-57 -58 0
-57 -59 0
-57 -60 0
-57 -61 0
-57 -62 0
-57 -63 0
-57 -64 0
-57 -65 0
-57 -66 0
-57 -67 0
-57 -68 0
-57 -69 0
-57 -70 0
-58 -59 0
-58 -60 0
-58 -61 0
-58 -62 0
-58 -63 0
-58 -64 0
-58 -65 0
-58 -66 0
-58 -67 0
-58 -68 0
-58 -69 0
-58 -70 0
-59 -60 0
-59 -61 0
-59 -62 0
-59 -63 0
-59 -64 0
-59 -65 0
-59 -66 0
-59 -67 0
-59 -68 0
-59 -69 0
-59 -70 0
-60 -61 0
-60 -62 0
-60 -63 0
-60 -64 0
-60 -65 0
-60 -66 0
-60 -67 0
-60 -68 0
-60 -69 0
-60 -70 0
-61 -62 0
-61 -63 0
-61 -64 0
-61 -65 0
-61 -66 0
-61 -67 0
-61 -68 0
-61 -69 0
-61 -70 0
-62 -63 0
-62 -64 0
-62 -65 0
-62 -66 0
-62 -67 0
-62 -68 0
-62 -69 0
-62 -70 0
-63 -64 0
-63 -65 0
-63 -66 0
-63 -67 0
-63 -68 0
-63 -69 0
-63 -70 0
-64 -65 0
-64 -66 0
-64 -67 0
-64 -68 0
-64 -69 0
-64 -70 0
-65 -66 0
-65 -67 0
-65 -68 0
-65 -69 0
-65 -70 0
-66 -67 0
-66 -68 0
-66 -69 0
-66 -70 0
-67 -68 0
-67 -69 0
-67 -70 0
-68 -69 0
-68 -70 0
-69 -70 0
71 72 73 74 75 76 77 78 79 80 81 82 83 84 0
-71 -72 0
-71 -73 0
-71 -74 0
-71 -75 0
-71 -76 0
-71 -77 0
-71 -78 0
-71 -79 0
-71 -80 0
-71 -81 0
-71 -82 0
-71 -83 0
-71 -84 0
-72 -73 0
-72 -74 0
-72 -75 0
-72 -76 0
-72 -77 0
-72 -78 0
-72 -79 0
-72 -80 0
-72 -81 0
-72 -82 0
-72 -83 0
-72 -84 0
-73 -74 0
-73 -75 0
-73 -76 0
-73 -77 0
-73 -78 0
-73 -79 0
-73 -80 0
-73 -81 0
-73 -82 0
-73 -83 0
-73 -84 0
-74 -75 0
-74 -76 0
-74 -77 0
-74 -78 0
-74 -79 0
-74 -80 0
-74 -81 0
-74 -82 0
-74 -83 0
-74 -84 0
-75 -76 0
-75 -77 0
-75 -78 0
-75 -79 0
-75 -80 0
-75 -81 0
-75 -82 0
-75 -83 0
-75 -84 0
-76 -77 0
-76 -78 0
-76 -79 0
-76 -80 0
-76 -81 0
-76 -82 0
-76 -83 0
-76 -84 0
-77 -78 0
-77 -79 0
-77 -80 0
-77 -81 0
-77 -82 0
-77 -83 0
-77 -84 0
-78 -79 0
-78 -80 0
-78 -81 0
-78 -82 0
-78 -83 0
-78 -84 0
-79 -80 0
-79 -81 0
-79 -82 0
-79 -83 0
-79 -84 0
-80 -81 0
-80 -82 0
-80 -83 0
-80 -84 0
-81 -82 0
-81 -83 0
-81 -84 0
-82 -83 0
-82 -84 0
-83 -84 0
-13 -19 0
-13 -39 0
-13 -44 0
-13 -58 0
-13 -80 0
-19 -39 0
-19 -44 0
-19 -58 0
-19 -80 0
-39 -44 0
-39 -58 0
-39 -80 0
-44 -58 0
-44 -80 0
-58 -80 0
-8 -17 0
-8 -37 0
-8 -50 0
-8 -68 0
-8 -78 0
-17 -37 0
-17 -50 0
-17 -68 0
-17 -78 0
-37 -50 0
-37 -68 0
-37 -78 0
-50 -68 0
-50 -78 0
-68 -78 0
-2 -19 0
-2 -31 0
-2 -56 0
-2 -60 0
-2 -75 0
-19 -31 0
-19 -56 0
-19 -60 0
-19 -75 0
-31 -56 0
-31 -60 0
-31 -75 0
-56 -60 0
-56 -75 0
-60 -75 0
-11 -23 0
-11 -35 0
-11 -45 0
-11 -69 0
-11 -74 0
-23 -35 0
-23 -45 0
-23 -69 0
-23 -74 0
-35 -45 0
-35 -69 0
-35 -74 0
-45 -69 0
-45 -74 0
-69 -74 0
-10 -15 0
-10 -29 0
-10 -56 0
-10 -58 0
-10 -75 0
-15 -29 0
-15 -56 0
-15 -58 0
-15 -75 0
-29 -56 0
-29 -58 0
-29 -75 0
-56 -58 0
-56 -75 0
-58 -75 0
-4 -28 0
-4 -42 0
-4 -49 0
-4 -69 0
-4 -74 0
-28 -42 0
-28 -49 0
-28 -69 0
-28 -74 0
-42 -49 0
-42 -69 0
-42 -74 0
-49 -69 0
-49 -74 0
-69 -74 0
-10 -27 0
-10 -39 0
-10 -47 0
-10 -60 0
-10 -82 0
-27 -39 0
-27 -47 0
-27 -60 0
-27 -82 0
-39 -47 0
-39 -60 0
-39 -82 0
-47 -60 0
-47 -82 0
-60 -82 0
-14 -17 0
-14 -32 0
-14 -53 0
-14 -66 0
-14 -77 0
-17 -32 0
-17 -53 0
-17 -66 0
-17 -77 0
-32 -53 0
-32 -66 0
-32 -77 0
-53 -66 0
-53 -77 0
-66 -77 0
-1 -17 0
-1 -41 0
-1 -54 0
-1 -64 0
-1 -84 0
-17 -41 0
-17 -54 0
-17 -64 0
-17 -84 0
-41 -54 0
-41 -64 0
-41 -84 0
-54 -64 0
-54 -84 0
-64 -84 0
-6 -16 0
-6 -36 0
-6 -43 0
-6 -63 0
-6 -81 0
-16 -36 0
-16 -43 0
-16 -63 0
-16 -81 0
-36 -43 0
-36 -63 0
-36 -81 0
-43 -63 0
-43 -81 0
-63 -81 0
-13 -15 0
-13 -31 0
-13 -47 0
-13 -65 0
-13 -82 0
-15 -31 0
-15 -47 0
-15 -65 0
-15 -82 0
-31 -47 0
-31 -65 0
-31 -82 0
-47 -65 0
-47 -82 0
-65 -82 0
-10 -22 0
-10 -31 0
-10 -44 0
-10 -59 0
-10 -80 0
-22 -31 0
-22 -44 0
-22 -59 0
-22 -80 0
-31 -44 0
-31 -59 0
-31 -80 0
-44 -59 0
-44 -80 0
-59 -80 0
-8 -26 0
-8 -32 0
-8 -54 0
-8 -67 0
-8 -84 0
-26 -32 0
-26 -54 0
-26 -67 0
-26 -84 0
-32 -54 0
-32 -67 0
-32 -84 0
-54 -67 0
-54 -84 0
-67 -84 0
-12 -24 0
-12 -32 0
-12 -50 0
-12 -64 0
-12 -78 0
-24 -32 0
-24 -50 0
-24 -64 0
-24 -78 0
-32 -50 0
-32 -64 0
-32 -78 0
-50 -64 0
-50 -78 0
-64 -78 0
-3 -20 0
-3 -33 0
-3 -43 0
-3 -63 0
-3 -72 0
-20 -33 0
-20 -43 0
-20 -63 0
-20 -72 0
-33 -43 0
-33 -63 0
-33 -72 0
-43 -63 0
-43 -72 0
-63 -72 0
-5 -21 0
-5 -34 0
-5 -43 0
-5 -63 0
-5 -79 0
-21 -34 0
-21 -43 0
-21 -63 0
-21 -79 0
-34 -43 0
-34 -63 0
-34 -79 0
-43 -63 0
-43 -79 0
-63 -79 0
-2 -15 0
-2 -39 0
-2 -52 0
-2 -59 0
-2 -71 0
-15 -39 0
-15 -52 0
-15 -59 0
-15 -71 0
-39 -52 0
-39 -59 0
-39 -71 0
-52 -59 0
-52 -71 0
-59 -71 0
-14 -24 0
-14 -38 0
-14 -54 0
-14 -68 0
-14 -84 0
-24 -38 0
-24 -54 0
-24 -68 0
-24 -84 0
-38 -54 0
-38 -68 0
-38 -84 0
-54 -68 0
-54 -84 0
-68 -84 0
-8 -24 0
-8 -41 0
-8 -55 0
-8 -66 0
-8 -76 0
-24 -41 0
-24 -55 0
-24 -66 0
-24 -76 0
-41 -55 0
-41 -66 0
-41 -76 0
-55 -66 0
-55 -76 0
-66 -76 0
-6 -20 0
-6 -34 0
-6 -51 0
-6 -62 0
-6 -79 0
-20 -34 0
-20 -51 0
-20 -62 0
-20 -79 0
-34 -51 0
-34 -62 0
-34 -79 0
-51 -62 0
-51 -79 0
-62 -79 0
-9 -23 0
-9 -42 0
-9 -49 0
-9 -61 0
-9 -73 0
-23 -42 0
-23 -49 0
-23 -61 0
-23 -73 0
-42 -49 0
-42 -61 0
-42 -73 0
-49 -61 0
-49 -73 0
-61 -73 0
-1 -24 0
-1 -37 0
-1 -53 0
-1 -67 0
-1 -77 0
-24 -37 0
-24 -53 0
-24 -67 0
-24 -77 0
-37 -53 0
-37 -67 0
-37 -77 0
-53 -67 0
-53 -77 0
-67 -77 0
-6 -21 0
-6 -33 0
-6 -46 0
-6 -70 0
-6 -72 0
-21 -33 0
-21 -46 0
-21 -70 0
-21 -72 0
-33 -46 0
-33 -70 0
-33 -72 0
-46 -70 0
-46 -72 0
-70 -72 0
-11 -28 0
-11 -40 0
-11 -48 0
-11 -61 0
-11 -73 0
-28 -40 0
-28 -48 0
-28 -61 0
-28 -73 0
-40 -48 0
-40 -61 0
-40 -73 0
-48 -61 0
-48 -73 0
-61 -73 0
-8 -18 0
-8 -38 0
-8 -53 0
-8 -64 0
-8 -77 0
-18 -38 0
-18 -53 0
-18 -64 0
-18 -77 0
-38 -53 0
-38 -64 0
-38 -77 0
-53 -64 0
-53 -77 0
-64 -77 0
-2 -22 0
-2 -30 0
-2 -47 0
-2 -58 0
-2 -82 0
-22 -30 0
-22 -47 0
-22 -58 0
-22 -82 0
-30 -47 0
-30 -58 0
-30 -82 0
-47 -58 0
-47 -82 0
-58 -82 0
-1 -26 0
-1 -38 0
-1 -50 0
-1 -66 0
-1 -78 0
-26 -38 0
-26 -50 0
-26 -66 0
-26 -78 0
-38 -50 0
-38 -66 0
-38 -78 0
-50 -66 0
-50 -78 0
-66 -78 0
-5 -16 0
-5 -33 0
-5 -51 0
-5 -62 0
-5 -72 0
-16 -33 0
-16 -51 0
-16 -62 0
-16 -72 0
-33 -51 0
-33 -62 0
-33 -72 0
-51 -62 0
-51 -72 0
-62 -72 0
-5 -20 0
-5 -36 0
-5 -46 0
-5 -70 0
-5 -81 0
-20 -36 0
-20 -46 0
-20 -70 0
-20 -81 0
-36 -46 0
-36 -70 0
-36 -81 0
-46 -70 0
-46 -81 0
-70 -81 0
-11 -25 0
-11 -42 0
-11 -49 0
-11 -57 0
-11 -83 0
-25 -42 0
-25 -49 0
-25 -57 0
-25 -83 0
-42 -49 0
-42 -57 0
-42 -83 0
-49 -57 0
-49 -83 0
-57 -83 0
-14 -18 0
-14 -41 0
-14 -50 0
-14 -67 0
-14 -78 0
-18 -41 0
-18 -50 0
-18 -67 0
-18 -78 0
-41 -50 0
-41 -67 0
-41 -78 0
-50 -67 0
-50 -78 0
-67 -78 0
-9 -25 0
-9 -40 0
-9 -48 0
-9 -69 0
-9 -74 0
-25 -40 0
-25 -48 0
-25 -69 0
-25 -74 0
-40 -48 0
-40 -69 0
-40 -74 0
-48 -69 0
-48 -74 0
-69 -74 0
-9 -28 0
-9 -35 0
-9 -45 0
-9 -57 0
-9 -83 0
-28 -35 0
-28 -45 0
-28 -57 0
-28 -83 0
-35 -45 0
-35 -57 0
-35 -83 0
-45 -57 0
-45 -83 0
-57 -83 0
-1 -18 0
-1 -32 0
-1 -55 0
-1 -68 0
-1 -76 0
-18 -32 0
-18 -55 0
-18 -68 0
-18 -76 0
-32 -55 0
-32 -68 0
-32 -76 0
-55 -68 0
-55 -76 0
-68 -76 0
-3 -16 0
-3 -34 0
-3 -46 0
-3 -70 0
-3 -79 0
-16 -34 0
-16 -46 0
-16 -70 0
-16 -79 0
-34 -46 0
-34 -70 0
-34 -79 0
-46 -70 0
-46 -79 0
-70 -79 0
-7 -15 0
-7 -30 0
-7 -44 0
-7 -60 0
-7 -80 0
-15 -30 0
-15 -44 0
-15 -60 0
-15 -80 0
-30 -44 0
-30 -60 0
-30 -80 0
-44 -60 0
-44 -80 0
-60 -80 0
-13 -22 0
-13 -29 0
-13 -52 0
-13 -60 0
-13 -71 0
-22 -29 0
-22 -52 0
-22 -60 0
-22 -71 0
-29 -52 0
-29 -60 0
-29 -71 0
-52 -60 0
-52 -71 0
-60 -71 0
-14 -26 0
-14 -37 0
-14 -55 0
-14 -64 0
-14 -76 0
-26 -37 0
-26 -55 0
-26 -64 0
-26 -76 0
-37 -55 0
-37 -64 0
-37 -76 0
-55 -64 0
-55 -76 0
-64 -76 0
-13 -27 0
-13 -30 0
-13 -56 0
-13 -59 0
-13 -75 0
-27 -30 0
-27 -56 0
-27 -59 0
-27 -75 0
-30 -56 0
-30 -59 0
-30 -75 0
-56 -59 0
-56 -75 0
-59 -75 0
-12 -26 0
-12 -41 0
-12 -53 0
-12 -68 0
-12 -77 0
-26 -41 0
-26 -53 0
-26 -68 0
-26 -77 0
-41 -53 0
-41 -68 0
-41 -77 0
-53 -68 0
-53 -77 0
-68 -77 0
-12 -17 0
-12 -38 0
-12 -55 0
-12 -67 0
-12 -76 0
-17 -38 0
-17 -55 0
-17 -67 0
-17 -76 0
-38 -55 0
-38 -67 0
-38 -76 0
-55 -67 0
-55 -76 0
-67 -76 0
-2 -27 0
-2 -29 0
-2 -44 0
-2 -65 0
-2 -80 0
-27 -29 0
-27 -44 0
-27 -65 0
-27 -80 0
-29 -44 0
-29 -65 0
-29 -80 0
-44 -65 0
-44 -80 0
-65 -80 0
-7 -22 0
-7 -39 0
-7 -56 0
-7 -65 0
-7 -75 0
-22 -39 0
-22 -56 0
-22 -65 0
-22 -75 0
-39 -56 0
-39 -65 0
-39 -75 0
-56 -65 0
-56 -75 0
-65 -75 0
-3 -21 0
-3 -36 0
-3 -51 0
-3 -62 0
-3 -81 0
-21 -36 0
-21 -51 0
-21 -62 0
-21 -81 0
-36 -51 0
-36 -62 0
-36 -81 0
-51 -62 0
-51 -81 0
-62 -81 0
-10 -19 0
-10 -30 0
-10 -52 0
-10 -65 0
-10 -71 0
-19 -30 0
-19 -52 0
-19 -65 0
-19 -71 0
-30 -52 0
-30 -65 0
-30 -71 0
-52 -65 0
-52 -71 0
-65 -71 0
-7 -27 0
-7 -31 0
-7 -52 0
-7 -58 0
-7 -71 0
-27 -31 0
-27 -52 0
-27 -58 0
-27 -71 0
-31 -52 0
-31 -58 0
-31 -71 0
-52 -58 0
-52 -71 0
-58 -71 0
-4 -23 0
-4 -40 0
-4 -48 0
-4 -57 0
-4 -83 0
-23 -40 0
-23 -48 0
-23 -57 0
-23 -83 0
-40 -48 0
-40 -57 0
-40 -83 0
-48 -57 0
-48 -83 0
-57 -83 0
-12 -18 0
-12 -37 0
-12 -54 0
-12 -66 0
-12 -84 0
-18 -37 0
-18 -54 0
-18 -66 0
-18 -84 0
-37 -54 0
-37 -66 0
-37 -84 0
-54 -66 0
-54 -84 0
-66 -84 0
-4 -25 0
-4 -35 0
-4 -45 0
-4 -61 0
-4 -73 0
-25 -35 0
-25 -45 0
-25 -61 0
-25 -73 0
-35 -45 0
-35 -61 0
-35 -73 0
-45 -61 0
-45 -73 0
-61 -73 0
-7 -19 0
-7 -29 0
-7 -47 0
-7 -59 0
-7 -82 0
-19 -29 0
-19 -47 0
-19 -59 0
-19 -82 0
-29 -47 0
-29 -59 0
-29 -82 0
-47 -59 0
-47 -82 0
-59 -82 0
