p cnf 54 15138
1 2 3 4 5 6 0
-1 -2 0
-1 -3 0
-1 -4 0
-1 -5 0
-1 -6 0
-2 -3 0
-2 -4 0
-2 -5 0
-2 -6 0
-3 -4 0
-3 -5 0
-3 -6 0
-4 -5 0
-4 -6 0
-5 -6 0
7 8 9 10 11 12 0
-7 -8 0
-7 -9 0
-7 -10 0
-7 -11 0
-7 -12 0
-8 -9 0
-8 -10 0
-8 -11 0
-8 -12 0
-9 -10 0
-9 -11 0
-9 -12 0
-10 -11 0
-10 -12 0
-11 -12 0
13 14 15 16 17 18 0
-13 -14 0
-13 -15 0
-13 -16 0
-13 -17 0
-13 -18 0
-14 -15 0
-14 -16 0
-14 -17 0
-14 -18 0
-15 -16 0
-15 -17 0
-15 -18 0
-16 -17 0
-16 -18 0
-17 -18 0
19 20 21 22 23 24 0
-19 -20 0
-19 -21 0
-19 -22 0
-19 -23 0
-19 -24 0
-20 -21 0
-20 -22 0
-20 -23 0
-20 -24 0
-21 -22 0
-21 -23 0
-21 -24 0
-22 -23 0
-22 -24 0
-23 -24 0
25 26 27 28 29 30 0
-25 -26 0
-25 -27 0
-25 -28 0
-25 -29 0
-25 -30 0
-26 -27 0
-26 -28 0
-26 -29 0
-26 -30 0
-27 -28 0
-27 -29 0
-27 -30 0
-28 -29 0
-28 -30 0
-29 -30 0
31 32 33 34 35 36 0
-31 -32 0
-31 -33 0
-31 -34 0
-31 -35 0
-31 -36 0
-32 -33 0
-32 -34 0
-32 -35 0
-32 -36 0
-33 -34 0
-33 -35 0
-33 -36 0
-34 -35 0
-34 -36 0
-35 -36 0
37 38 39 40 41 42 0
-37 -38 0
-37 -39 0
-37 -40 0
-37 -41 0
-37 -42 0
-38 -39 0
-38 -40 0
-38 -41 0
-38 -42 0
-39 -40 0
-39 -41 0
-39 -42 0
-40 -41 0
-40 -42 0
-41 -42 0
43 44 45 46 47 48 0
-43 -44 0
-43 -45 0
-43 -46 0
-43 -47 0
-43 -48 0
-44 -45 0
-44 -46 0
-44 -47 0
-44 -48 0
-45 -46 0
-45 -47 0
-45 -48 0
-46 -47 0
-46 -48 0
-47 -48 0
49 50 51 52 53 54 0
-49 -50 0
-49 -51 0
-49 -52 0
-49 -53 0
-49 -54 0
-50 -51 0
-50 -52 0
-50 -53 0
-50 -54 0
-51 -52 0
-51 -53 0
-51 -54 0
-52 -53 0
-52 -54 0
-53 -54 0
-1 -12 -16 -22 0
-1 -12 -16 -25 0
-1 -12 -16 -36 0
-1 -12 -16 -39 0
-1 -12 -16 -44 0
-1 -12 -16 -52 0
-1 -12 -22 -25 0
-1 -12 -22 -36 0
-1 -12 -22 -39 0
-1 -12 -22 -44 0
-1 -12 -22 -52 0
-1 -12 -25 -36 0
-1 -12 -25 -39 0
-1 -12 -25 -44 0
-1 -12 -25 -52 0
-1 -12 -36 -39 0
-1 -12 -36 -44 0
-1 -12 -36 -52 0
-1 -12 -39 -44 0
-1 -12 -39 -52 0
-1 -12 -44 -52 0
-1 -16 -22 -25 0
-1 -16 -22 -36 0
-1 -16 -22 -39 0
-1 -16 -22 -44 0
-1 -16 -22 -52 0
-1 -16 -25 -36 0
-1 -16 -25 -39 0
-1 -16 -25 -44 0
-1 -16 -25 -52 0
-1 -16 -36 -39 0
-1 -16 -36 -44 0
-1 -16 -36 -52 0
-1 -16 -39 -44 0
-1 -16 -39 -52 0
-1 -16 -44 -52 0
-1 -22 -25 -36 0
-1 -22 -25 -39 0
-1 -22 -25 -44 0
-1 -22 -25 -52 0
-1 -22 -36 -39 0
-1 -22 -36 -44 0
-1 -22 -36 -52 0
-1 -22 -39 -44 0
-1 -22 -39 -52 0
-1 -22 -44 -52 0
-1 -25 -36 -39 0
-1 -25 -36 -44 0
-1 -25 -36 -52 0
-1 -25 -39 -44 0
-1 -25 -39 -52 0
-1 -25 -44 -52 0
-1 -36 -39 -44 0
-1 -36 -39 -52 0
-1 -36 -44 -52 0
-1 -39 -44 -52 0
-12 -16 -22 -25 0
-12 -16 -22 -36 0
-12 -16 -22 -39 0
-12 -16 -22 -44 0
-12 -16 -22 -52 0
-12 -16 -25 -36 0
-12 -16 -25 -39 0
-12 -16 -25 -44 0
-12 -16 -25 -52 0
-12 -16 -36 -39 0
-12 -16 -36 -44 0
-12 -16 -36 -52 0
-12 -16 -39 -44 0
-12 -16 -39 -52 0
-12 -16 -44 -52 0
-12 -22 -25 -36 0
-12 -22 -25 -39 0
-12 -22 -25 -44 0
-12 -22 -25 -52 0
-12 -22 -36 -39 0
-12 -22 -36 -44 0
-12 -22 -36 -52 0
-12 -22 -39 -44 0
-12 -22 -39 -52 0
-12 -22 -44 -52 0
-12 -25 -36 -39 0
-12 -25 -36 -44 0
-12 -25 -36 -52 0
-12 -25 -39 -44 0
-12 -25 -39 -52 0
-12 -25 -44 -52 0
-12 -36 -39 -44 0
-12 -36 -39 -52 0
-12 -36 -44 -52 0
-12 -39 -44 -52 0
-16 -22 -25 -36 0
-16 -22 -25 -39 0
-16 -22 -25 -44 0
-16 -22 -25 -52 0
-16 -22 -36 -39 0
-16 -22 -36 -44 0
-16 -22 -36 -52 0
-16 -22 -39 -44 0
-16 -22 -39 -52 0
-16 -22 -44 -52 0
-16 -25 -36 -39 0
-16 -25 -36 -44 0
-16 -25 -36 -52 0
-16 -25 -39 -44 0
-16 -25 -39 -52 0
-16 -25 -44 -52 0
-16 -36 -39 -44 0
-16 -36 -39 -52 0
-16 -36 -44 -52 0
-16 -39 -44 -52 0
-22 -25 -36 -39 0
-22 -25 -36 -44 0
-22 -25 -36 -52 0
-22 -25 -39 -44 0
-22 -25 -39 -52 0
-22 -25 -44 -52 0
-22 -36 -39 -44 0
-22 -36 -39 -52 0
-22 -36 -44 -52 0
-22 -39 -44 -52 0
-25 -36 -39 -44 0
-25 -36 -39 -52 0
-25 -36 -44 -52 0
-25 -39 -44 -52 0
-36 -39 -44 -52 0
-2 -7 -17 -23 0
-2 -7 -17 -26 0
-2 -7 -17 -31 0
-2 -7 -17 -40 0
-2 -7 -17 -45 0
-2 -7 -17 -53 0
-2 -7 -23 -26 0
-2 -7 -23 -31 0
-2 -7 -23 -40 0
-2 -7 -23 -45 0
-2 -7 -23 -53 0
-2 -7 -26 -31 0
-2 -7 -26 -40 0
-2 -7 -26 -45 0
-2 -7 -26 -53 0
-2 -7 -31 -40 0
-2 -7 -31 -45 0
-2 -7 -31 -53 0
-2 -7 -40 -45 0
-2 -7 -40 -53 0
-2 -7 -45 -53 0
-2 -17 -23 -26 0
-2 -17 -23 -31 0
-2 -17 -23 -40 0
-2 -17 -23 -45 0
-2 -17 -23 -53 0
-2 -17 -26 -31 0
-2 -17 -26 -40 0
-2 -17 -26 -45 0
-2 -17 -26 -53 0
-2 -17 -31 -40 0
-2 -17 -31 -45 0
-2 -17 -31 -53 0
-2 -17 -40 -45 0
-2 -17 -40 -53 0
-2 -17 -45 -53 0
-2 -23 -26 -31 0
-2 -23 -26 -40 0
-2 -23 -26 -45 0
-2 -23 -26 -53 0
-2 -23 -31 -40 0
-2 -23 -31 -45 0
-2 -23 -31 -53 0
-2 -23 -40 -45 0
-2 -23 -40 -53 0
-2 -23 -45 -53 0
-2 -26 -31 -40 0
-2 -26 -31 -45 0
-2 -26 -31 -53 0
-2 -26 -40 -45 0
-2 -26 -40 -53 0
-2 -26 -45 -53 0
-2 -31 -40 -45 0
-2 -31 -40 -53 0
-2 -31 -45 -53 0
-2 -40 -45 -53 0
-7 -17 -23 -26 0
-7 -17 -23 -31 0
-7 -17 -23 -40 0
-7 -17 -23 -45 0
-7 -17 -23 -53 0
-7 -17 -26 -31 0
-7 -17 -26 -40 0
-7 -17 -26 -45 0
-7 -17 -26 -53 0
-7 -17 -31 -40 0
-7 -17 -31 -45 0
-7 -17 -31 -53 0
-7 -17 -40 -45 0
-7 -17 -40 -53 0
-7 -17 -45 -53 0
-7 -23 -26 -31 0
-7 -23 -26 -40 0
-7 -23 -26 -45 0
-7 -23 -26 -53 0
-7 -23 -31 -40 0
-7 -23 -31 -45 0
-7 -23 -31 -53 0
-7 -23 -40 -45 0
-7 -23 -40 -53 0
-7 -23 -45 -53 0
-7 -26 -31 -40 0
-7 -26 -31 -45 0
-7 -26 -31 -53 0
-7 -26 -40 -45 0
-7 -26 -40 -53 0
-7 -26 -45 -53 0
-7 -31 -40 -45 0
-7 -31 -40 -53 0
-7 -31 -45 -53 0
-7 -40 -45 -53 0
-17 -23 -26 -31 0
-17 -23 -26 -40 0
-17 -23 -26 -45 0
-17 -23 -26 -53 0
-17 -23 -31 -40 0
-17 -23 -31 -45 0
-17 -23 -31 -53 0
-17 -23 -40 -45 0
-17 -23 -40 -53 0
-17 -23 -45 -53 0
-17 -26 -31 -40 0
-17 -26 -31 -45 0
-17 -26 -31 -53 0
-17 -26 -40 -45 0
-17 -26 -40 -53 0
-17 -26 -45 -53 0
-17 -31 -40 -45 0
-17 -31 -40 -53 0
-17 -31 -45 -53 0
-17 -40 -45 -53 0
-23 -26 -31 -40 0
-23 -26 -31 -45 0
-23 -26 -31 -53 0
-23 -26 -40 -45 0
-23 -26 -40 -53 0
-23 -26 -45 -53 0
-23 -31 -40 -45 0
-23 -31 -40 -53 0
-23 -31 -45 -53 0
-23 -40 -45 -53 0
-26 -31 -40 -45 0
-26 -31 -40 -53 0
-26 -31 -45 -53 0
-26 -40 -45 -53 0
-31 -40 -45 -53 0
-3 -8 -18 -24 0
-3 -8 -18 -27 0
-3 -8 -18 -32 0
-3 -8 -18 -41 0
-3 -8 -18 -46 0
-3 -8 -18 -54 0
-3 -8 -24 -27 0
-3 -8 -24 -32 0
-3 -8 -24 -41 0
-3 -8 -24 -46 0
-3 -8 -24 -54 0
-3 -8 -27 -32 0
-3 -8 -27 -41 0
-3 -8 -27 -46 0
-3 -8 -27 -54 0
-3 -8 -32 -41 0
-3 -8 -32 -46 0
-3 -8 -32 -54 0
-3 -8 -41 -46 0
-3 -8 -41 -54 0
-3 -8 -46 -54 0
-3 -18 -24 -27 0
-3 -18 -24 -32 0
-3 -18 -24 -41 0
-3 -18 -24 -46 0
-3 -18 -24 -54 0
-3 -18 -27 -32 0
-3 -18 -27 -41 0
-3 -18 -27 -46 0
-3 -18 -27 -54 0
-3 -18 -32 -41 0
-3 -18 -32 -46 0
-3 -18 -32 -54 0
-3 -18 -41 -46 0
-3 -18 -41 -54 0
-3 -18 -46 -54 0
-3 -24 -27 -32 0
-3 -24 -27 -41 0
-3 -24 -27 -46 0
-3 -24 -27 -54 0
-3 -24 -32 -41 0
-3 -24 -32 -46 0
-3 -24 -32 -54 0
-3 -24 -41 -46 0
-3 -24 -41 -54 0
-3 -24 -46 -54 0
-3 -27 -32 -41 0
-3 -27 -32 -46 0
-3 -27 -32 -54 0
-3 -27 -41 -46 0
-3 -27 -41 -54 0
-3 -27 -46 -54 0
-3 -32 -41 -46 0
-3 -32 -41 -54 0
-3 -32 -46 -54 0
-3 -41 -46 -54 0
-8 -18 -24 -27 0
-8 -18 -24 -32 0
-8 -18 -24 -41 0
-8 -18 -24 -46 0
-8 -18 -24 -54 0
-8 -18 -27 -32 0
-8 -18 -27 -41 0
-8 -18 -27 -46 0
-8 -18 -27 -54 0
-8 -18 -32 -41 0
-8 -18 -32 -46 0
-8 -18 -32 -54 0
-8 -18 -41 -46 0
-8 -18 -41 -54 0
-8 -18 -46 -54 0
-8 -24 -27 -32 0
-8 -24 -27 -41 0
-8 -24 -27 -46 0
-8 -24 -27 -54 0
-8 -24 -32 -41 0
-8 -24 -32 -46 0
-8 -24 -32 -54 0
-8 -24 -41 -46 0
-8 -24 -41 -54 0
-8 -24 -46 -54 0
-8 -27 -32 -41 0
-8 -27 -32 -46 0
-8 -27 -32 -54 0
-8 -27 -41 -46 0
-8 -27 -41 -54 0
-8 -27 -46 -54 0
-8 -32 -41 -46 0
-8 -32 -41 -54 0
-8 -32 -46 -54 0
-8 -41 -46 -54 0
-18 -24 -27 -32 0
-18 -24 -27 -41 0
-18 -24 -27 -46 0
-18 -24 -27 -54 0
-18 -24 -32 -41 0
-18 -24 -32 -46 0
-18 -24 -32 -54 0
-18 -24 -41 -46 0
-18 -24 -41 -54 0
-18 -24 -46 -54 0
-18 -27 -32 -41 0
-18 -27 -32 -46 0
-18 -27 -32 -54 0
-18 -27 -41 -46 0
-18 -27 -41 -54 0
-18 -27 -46 -54 0
-18 -32 -41 -46 0
-18 -32 -41 -54 0
-18 -32 -46 -54 0
-18 -41 -46 -54 0
-24 -27 -32 -41 0
-24 -27 -32 -46 0
-24 -27 -32 -54 0
-24 -27 -41 -46 0
-24 -27 -41 -54 0
-24 -27 -46 -54 0
-24 -32 -41 -46 0
-24 -32 -41 -54 0
-24 -32 -46 -54 0
-24 -41 -46 -54 0
-27 -32 -41 -46 0
-27 -32 -41 -54 0
-27 -32 -46 -54 0
-27 -41 -46 -54 0
-32 -41 -46 -54 0
-4 -9 -13 -19 0
-4 -9 -13 -28 0
-4 -9 -13 -33 0
-4 -9 -13 -42 0
-4 -9 -13 -47 0
-4 -9 -13 -49 0
-4 -9 -19 -28 0
-4 -9 -19 -33 0
-4 -9 -19 -42 0
-4 -9 -19 -47 0
-4 -9 -19 -49 0
-4 -9 -28 -33 0
-4 -9 -28 -42 0
-4 -9 -28 -47 0
-4 -9 -28 -49 0
-4 -9 -33 -42 0
-4 -9 -33 -47 0
-4 -9 -33 -49 0
-4 -9 -42 -47 0
-4 -9 -42 -49 0
-4 -9 -47 -49 0
-4 -13 -19 -28 0
-4 -13 -19 -33 0
-4 -13 -19 -42 0
-4 -13 -19 -47 0
-4 -13 -19 -49 0
-4 -13 -28 -33 0
-4 -13 -28 -42 0
-4 -13 -28 -47 0
-4 -13 -28 -49 0
-4 -13 -33 -42 0
-4 -13 -33 -47 0
-4 -13 -33 -49 0
-4 -13 -42 -47 0
-4 -13 -42 -49 0
-4 -13 -47 -49 0
-4 -19 -28 -33 0
-4 -19 -28 -42 0
-4 -19 -28 -47 0
-4 -19 -28 -49 0
-4 -19 -33 -42 0
-4 -19 -33 -47 0
-4 -19 -33 -49 0
-4 -19 -42 -47 0
-4 -19 -42 -49 0
-4 -19 -47 -49 0
-4 -28 -33 -42 0
-4 -28 -33 -47 0
-4 -28 -33 -49 0
-4 -28 -42 -47 0
-4 -28 -42 -49 0
-4 -28 -47 -49 0
-4 -33 -42 -47 0
-4 -33 -42 -49 0
-4 -33 -47 -49 0
-4 -42 -47 -49 0
-9 -13 -19 -28 0
-9 -13 -19 -33 0
-9 -13 -19 -42 0
-9 -13 -19 -47 0
-9 -13 -19 -49 0
-9 -13 -28 -33 0
-9 -13 -28 -42 0
-9 -13 -28 -47 0
-9 -13 -28 -49 0
-9 -13 -33 -42 0
-9 -13 -33 -47 0
-9 -13 -33 -49 0
-9 -13 -42 -47 0
-9 -13 -42 -49 0
-9 -13 -47 -49 0
-9 -19 -28 -33 0
-9 -19 -28 -42 0
-9 -19 -28 -47 0
-9 -19 -28 -49 0
-9 -19 -33 -42 0
-9 -19 -33 -47 0
-9 -19 -33 -49 0
-9 -19 -42 -47 0
-9 -19 -42 -49 0
-9 -19 -47 -49 0
-9 -28 -33 -42 0
-9 -28 -33 -47 0
-9 -28 -33 -49 0
-9 -28 -42 -47 0
-9 -28 -42 -49 0
-9 -28 -47 -49 0
-9 -33 -42 -47 0
-9 -33 -42 -49 0
-9 -33 -47 -49 0
-9 -42 -47 -49 0
-13 -19 -28 -33 0
-13 -19 -28 -42 0
-13 -19 -28 -47 0
-13 -19 -28 -49 0
-13 -19 -33 -42 0
-13 -19 -33 -47 0
-13 -19 -33 -49 0
-13 -19 -42 -47 0
-13 -19 -42 -49 0
-13 -19 -47 -49 0
-13 -28 -33 -42 0
-13 -28 -33 -47 0
-13 -28 -33 -49 0
-13 -28 -42 -47 0
-13 -28 -42 -49 0
-13 -28 -47 -49 0
-13 -33 -42 -47 0
-13 -33 -42 -49 0
-13 -33 -47 -49 0
-13 -42 -47 -49 0
-19 -28 -33 -42 0
-19 -28 -33 -47 0
-19 -28 -33 -49 0
-19 -28 -42 -47 0
-19 -28 -42 -49 0
-19 -28 -47 -49 0
-19 -33 -42 -47 0
-19 -33 -42 -49 0
-19 -33 -47 -49 0
-19 -42 -47 -49 0
-28 -33 -42 -47 0
-28 -33 -42 -49 0
-28 -33 -47 -49 0
-28 -42 -47 -49 0
-33 -42 -47 -49 0
-5 -10 -14 -20 0
-5 -10 -14 -29 0
-5 -10 -14 -34 0
-5 -10 -14 -37 0
-5 -10 -14 -48 0
-5 -10 -14 -50 0
-5 -10 -20 -29 0
-5 -10 -20 -34 0
-5 -10 -20 -37 0
-5 -10 -20 -48 0
-5 -10 -20 -50 0
-5 -10 -29 -34 0
-5 -10 -29 -37 0
-5 -10 -29 -48 0
-5 -10 -29 -50 0
-5 -10 -34 -37 0
-5 -10 -34 -48 0
-5 -10 -34 -50 0
-5 -10 -37 -48 0
-5 -10 -37 -50 0
-5 -10 -48 -50 0
-5 -14 -20 -29 0
-5 -14 -20 -34 0
-5 -14 -20 -37 0
-5 -14 -20 -48 0
-5 -14 -20 -50 0
-5 -14 -29 -34 0
-5 -14 -29 -37 0
-5 -14 -29 -48 0
-5 -14 -29 -50 0
-5 -14 -34 -37 0
-5 -14 -34 -48 0
-5 -14 -34 -50 0
-5 -14 -37 -48 0
-5 -14 -37 -50 0
-5 -14 -48 -50 0
-5 -20 -29 -34 0
-5 -20 -29 -37 0
-5 -20 -29 -48 0
-5 -20 -29 -50 0
-5 -20 -34 -37 0
-5 -20 -34 -48 0
-5 -20 -34 -50 0
-5 -20 -37 -48 0
-5 -20 -37 -50 0
-5 -20 -48 -50 0
-5 -29 -34 -37 0
-5 -29 -34 -48 0
-5 -29 -34 -50 0
-5 -29 -37 -48 0
-5 -29 -37 -50 0
-5 -29 -48 -50 0
-5 -34 -37 -48 0
-5 -34 -37 -50 0
-5 -34 -48 -50 0
-5 -37 -48 -50 0
-10 -14 -20 -29 0
-10 -14 -20 -34 0
-10 -14 -20 -37 0
-10 -14 -20 -48 0
-10 -14 -20 -50 0
-10 -14 -29 -34 0
-10 -14 -29 -37 0
-10 -14 -29 -48 0
-10 -14 -29 -50 0
-10 -14 -34 -37 0
-10 -14 -34 -48 0
-10 -14 -34 -50 0
-10 -14 -37 -48 0
-10 -14 -37 -50 0
-10 -14 -48 -50 0
-10 -20 -29 -34 0
-10 -20 -29 -37 0
-10 -20 -29 -48 0
-10 -20 -29 -50 0
-10 -20 -34 -37 0
-10 -20 -34 -48 0
-10 -20 -34 -50 0
-10 -20 -37 -48 0
-10 -20 -37 -50 0
-10 -20 -48 -50 0
-10 -29 -34 -37 0
-10 -29 -34 -48 0
-10 -29 -34 -50 0
-10 -29 -37 -48 0
-10 -29 -37 -50 0
-10 -29 -48 -50 0
-10 -34 -37 -48 0
-10 -34 -37 -50 0
-10 -34 -48 -50 0
-10 -37 -48 -50 0
-14 -20 -29 -34 0
-14 -20 -29 -37 0
-14 -20 -29 -48 0
-14 -20 -29 -50 0
-14 -20 -34 -37 0
-14 -20 -34 -48 0
-14 -20 -34 -50 0
-14 -20 -37 -48 0
-14 -20 -37 -50 0
-14 -20 -48 -50 0
-14 -29 -34 -37 0
-14 -29 -34 -48 0
-14 -29 -34 -50 0
-14 -29 -37 -48 0
-14 -29 -37 -50 0
-14 -29 -48 -50 0
-14 -34 -37 -48 0
-14 -34 -37 -50 0
-14 -34 -48 -50 0
-14 -37 -48 -50 0
-20 -29 -34 -37 0
-20 -29 -34 -48 0
-20 -29 -34 -50 0
-20 -29 -37 -48 0
-20 -29 -37 -50 0
-20 -29 -48 -50 0
-20 -34 -37 -48 0
-20 -34 -37 -50 0
-20 -34 -48 -50 0
-20 -37 -48 -50 0
-29 -34 -37 -48 0
-29 -34 -37 -50 0
-29 -34 -48 -50 0
-29 -37 -48 -50 0
-34 -37 -48 -50 0
-6 -11 -15 -21 0
-6 -11 -15 -30 0
-6 -11 -15 -35 0
-6 -11 -15 -38 0
-6 -11 -15 -43 0
-6 -11 -15 -51 0
-6 -11 -21 -30 0
-6 -11 -21 -35 0
-6 -11 -21 -38 0
-6 -11 -21 -43 0
-6 -11 -21 -51 0
-6 -11 -30 -35 0
-6 -11 -30 -38 0
-6 -11 -30 -43 0
-6 -11 -30 -51 0
-6 -11 -35 -38 0
-6 -11 -35 -43 0
-6 -11 -35 -51 0
-6 -11 -38 -43 0
-6 -11 -38 -51 0
-6 -11 -43 -51 0
-6 -15 -21 -30 0
-6 -15 -21 -35 0
-6 -15 -21 -38 0
-6 -15 -21 -43 0
-6 -15 -21 -51 0
-6 -15 -30 -35 0
-6 -15 -30 -38 0
-6 -15 -30 -43 0
-6 -15 -30 -51 0
-6 -15 -35 -38 0
-6 -15 -35 -43 0
-6 -15 -35 -51 0
-6 -15 -38 -43 0
-6 -15 -38 -51 0
-6 -15 -43 -51 0
-6 -21 -30 -35 0
-6 -21 -30 -38 0
-6 -21 -30 -43 0
-6 -21 -30 -51 0
-6 -21 -35 -38 0
-6 -21 -35 -43 0
-6 -21 -35 -51 0
-6 -21 -38 -43 0
-6 -21 -38 -51 0
-6 -21 -43 -51 0
-6 -30 -35 -38 0
-6 -30 -35 -43 0
-6 -30 -35 -51 0
-6 -30 -38 -43 0
-6 -30 -38 -51 0
-6 -30 -43 -51 0
-6 -35 -38 -43 0
-6 -35 -38 -51 0
-6 -35 -43 -51 0
-6 -38 -43 -51 0
-11 -15 -21 -30 0
-11 -15 -21 -35 0
-11 -15 -21 -38 0
-11 -15 -21 -43 0
-11 -15 -21 -51 0
-11 -15 -30 -35 0
-11 -15 -30 -38 0
-11 -15 -30 -43 0
-11 -15 -30 -51 0
-11 -15 -35 -38 0
-11 -15 -35 -43 0
-11 -15 -35 -51 0
-11 -15 -38 -43 0
-11 -15 -38 -51 0
-11 -15 -43 -51 0
-11 -21 -30 -35 0
-11 -21 -30 -38 0
-11 -21 -30 -43 0
-11 -21 -30 -51 0
-11 -21 -35 -38 0
-11 -21 -35 -43 0
-11 -21 -35 -51 0
-11 -21 -38 -43 0
-11 -21 -38 -51 0
-11 -21 -43 -51 0
-11 -30 -35 -38 0
-11 -30 -35 -43 0
-11 -30 -35 -51 0
-11 -30 -38 -43 0
-11 -30 -38 -51 0
-11 -30 -43 -51 0
-11 -35 -38 -43 0
-11 -35 -38 -51 0
-11 -35 -43 -51 0
-11 -38 -43 -51 0
-15 -21 -30 -35 0
-15 -21 -30 -38 0
-15 -21 -30 -43 0
-15 -21 -30 -51 0
-15 -21 -35 -38 0
-15 -21 -35 -43 0
-15 -21 -35 -51 0
-15 -21 -38 -43 0
-15 -21 -38 -51 0
-15 -21 -43 -51 0
-15 -30 -35 -38 0
-15 -30 -35 -43 0
-15 -30 -35 -51 0
-15 -30 -38 -43 0
-15 -30 -38 -51 0
-15 -30 -43 -51 0
-15 -35 -38 -43 0
-15 -35 -38 -51 0
-15 -35 -43 -51 0
-15 -38 -43 -51 0
-21 -30 -35 -38 0
-21 -30 -35 -43 0
-21 -30 -35 -51 0
-21 -30 -38 -43 0
-21 -30 -38 -51 0
-21 -30 -43 -51 0
-21 -35 -38 -43 0
-21 -35 -38 -51 0
-21 -35 -43 -51 0
-21 -38 -43 -51 0
-30 -35 -38 -43 0
-30 -35 -38 -51 0
-30 -35 -43 -51 0
-30 -38 -43 -51 0
-35 -38 -43 -51 0
-1 -7 -15 -21 0
-1 -7 -15 -28 0
-1 -7 -15 -33 0
-1 -7 -15 -39 0
-1 -7 -15 -47 0
-1 -7 -15 -54 0
-1 -7 -21 -28 0
-1 -7 -21 -33 0
-1 -7 -21 -39 0
-1 -7 -21 -47 0
-1 -7 -21 -54 0
-1 -7 -28 -33 0
-1 -7 -28 -39 0
-1 -7 -28 -47 0
-1 -7 -28 -54 0
-1 -7 -33 -39 0
-1 -7 -33 -47 0
-1 -7 -33 -54 0
-1 -7 -39 -47 0
-1 -7 -39 -54 0
-1 -7 -47 -54 0
-1 -15 -21 -28 0
-1 -15 -21 -33 0
-1 -15 -21 -39 0
-1 -15 -21 -47 0
-1 -15 -21 -54 0
-1 -15 -28 -33 0
-1 -15 -28 -39 0
-1 -15 -28 -47 0
-1 -15 -28 -54 0
-1 -15 -33 -39 0
-1 -15 -33 -47 0
-1 -15 -33 -54 0
-1 -15 -39 -47 0
-1 -15 -39 -54 0
-1 -15 -47 -54 0
-1 -21 -28 -33 0
-1 -21 -28 -39 0
-1 -21 -28 -47 0
-1 -21 -28 -54 0
-1 -21 -33 -39 0
-1 -21 -33 -47 0
-1 -21 -33 -54 0
-1 -21 -39 -47 0
-1 -21 -39 -54 0
-1 -21 -47 -54 0
-1 -28 -33 -39 0
-1 -28 -33 -47 0
-1 -28 -33 -54 0
-1 -28 -39 -47 0
-1 -28 -39 -54 0
-1 -28 -47 -54 0
-1 -33 -39 -47 0
-1 -33 -39 -54 0
-1 -33 -47 -54 0
-1 -39 -47 -54 0
-7 -15 -21 -28 0
-7 -15 -21 -33 0
-7 -15 -21 -39 0
-7 -15 -21 -47 0
-7 -15 -21 -54 0
-7 -15 -28 -33 0
-7 -15 -28 -39 0
-7 -15 -28 -47 0
-7 -15 -28 -54 0
-7 -15 -33 -39 0
-7 -15 -33 -47 0
-7 -15 -33 -54 0
-7 -15 -39 -47 0
-7 -15 -39 -54 0
-7 -15 -47 -54 0
-7 -21 -28 -33 0
-7 -21 -28 -39 0
-7 -21 -28 -47 0
-7 -21 -28 -54 0
-7 -21 -33 -39 0
-7 -21 -33 -47 0
-7 -21 -33 -54 0
-7 -21 -39 -47 0
-7 -21 -39 -54 0
-7 -21 -47 -54 0
-7 -28 -33 -39 0
-7 -28 -33 -47 0
-7 -28 -33 -54 0
-7 -28 -39 -47 0
-7 -28 -39 -54 0
-7 -28 -47 -54 0
-7 -33 -39 -47 0
-7 -33 -39 -54 0
-7 -33 -47 -54 0
-7 -39 -47 -54 0
-15 -21 -28 -33 0
-15 -21 -28 -39 0
-15 -21 -28 -47 0
-15 -21 -28 -54 0
-15 -21 -33 -39 0
-15 -21 -33 -47 0
-15 -21 -33 -54 0
-15 -21 -39 -47 0
-15 -21 -39 -54 0
-15 -21 -47 -54 0
-15 -28 -33 -39 0
-15 -28 -33 -47 0
-15 -28 -33 -54 0
-15 -28 -39 -47 0
-15 -28 -39 -54 0
-15 -28 -47 -54 0
-15 -33 -39 -47 0
-15 -33 -39 -54 0
-15 -33 -47 -54 0
-15 -39 -47 -54 0
-21 -28 -33 -39 0
-21 -28 -33 -47 0
-21 -28 -33 -54 0
-21 -28 -39 -47 0
-21 -28 -39 -54 0
-21 -28 -47 -54 0
-21 -33 -39 -47 0
-21 -33 -39 -54 0
-21 -33 -47 -54 0
-21 -39 -47 -54 0
-28 -33 -39 -47 0
-28 -33 -39 -54 0
-28 -33 -47 -54 0
-28 -39 -47 -54 0
-33 -39 -47 -54 0
-2 -8 -16 -22 0
-2 -8 -16 -29 0
-2 -8 -16 -34 0
-2 -8 -16 -40 0
-2 -8 -16 -48 0
-2 -8 -16 -49 0
-2 -8 -22 -29 0
-2 -8 -22 -34 0
-2 -8 -22 -40 0
-2 -8 -22 -48 0
-2 -8 -22 -49 0
-2 -8 -29 -34 0
-2 -8 -29 -40 0
-2 -8 -29 -48 0
-2 -8 -29 -49 0
-2 -8 -34 -40 0
-2 -8 -34 -48 0
-2 -8 -34 -49 0
-2 -8 -40 -48 0
-2 -8 -40 -49 0
-2 -8 -48 -49 0
-2 -16 -22 -29 0
-2 -16 -22 -34 0
-2 -16 -22 -40 0
-2 -16 -22 -48 0
-2 -16 -22 -49 0
-2 -16 -29 -34 0
-2 -16 -29 -40 0
-2 -16 -29 -48 0
-2 -16 -29 -49 0
-2 -16 -34 -40 0
-2 -16 -34 -48 0
-2 -16 -34 -49 0
-2 -16 -40 -48 0
-2 -16 -40 -49 0
-2 -16 -48 -49 0
-2 -22 -29 -34 0
-2 -22 -29 -40 0
-2 -22 -29 -48 0
-2 -22 -29 -49 0
-2 -22 -34 -40 0
-2 -22 -34 -48 0
-2 -22 -34 -49 0
-2 -22 -40 -48 0
-2 -22 -40 -49 0
-2 -22 -48 -49 0
-2 -29 -34 -40 0
-2 -29 -34 -48 0
-2 -29 -34 -49 0
-2 -29 -40 -48 0
-2 -29 -40 -49 0
-2 -29 -48 -49 0
-2 -34 -40 -48 0
-2 -34 -40 -49 0
-2 -34 -48 -49 0
-2 -40 -48 -49 0
-8 -16 -22 -29 0
-8 -16 -22 -34 0
-8 -16 -22 -40 0
-8 -16 -22 -48 0
-8 -16 -22 -49 0
-8 -16 -29 -34 0
-8 -16 -29 -40 0
-8 -16 -29 -48 0
-8 -16 -29 -49 0
-8 -16 -34 -40 0
-8 -16 -34 -48 0
-8 -16 -34 -49 0
-8 -16 -40 -48 0
-8 -16 -40 -49 0
-8 -16 -48 -49 0
-8 -22 -29 -34 0
-8 -22 -29 -40 0
-8 -22 -29 -48 0
-8 -22 -29 -49 0
-8 -22 -34 -40 0
-8 -22 -34 -48 0
-8 -22 -34 -49 0
-8 -22 -40 -48 0
-8 -22 -40 -49 0
-8 -22 -48 -49 0
-8 -29 -34 -40 0
-8 -29 -34 -48 0
-8 -29 -34 -49 0
-8 -29 -40 -48 0
-8 -29 -40 -49 0
-8 -29 -48 -49 0
-8 -34 -40 -48 0
-8 -34 -40 -49 0
-8 -34 -48 -49 0
-8 -40 -48 -49 0
-16 -22 -29 -34 0
-16 -22 -29 -40 0
-16 -22 -29 -48 0
-16 -22 -29 -49 0
-16 -22 -34 -40 0
-16 -22 -34 -48 0
-16 -22 -34 -49 0
-16 -22 -40 -48 0
-16 -22 -40 -49 0
-16 -22 -48 -49 0
-16 -29 -34 -40 0
-16 -29 -34 -48 0
-16 -29 -34 -49 0
-16 -29 -40 -48 0
-16 -29 -40 -49 0
-16 -29 -48 -49 0
-16 -34 -40 -48 0
-16 -34 -40 -49 0
-16 -34 -48 -49 0
-16 -40 -48 -49 0
-22 -29 -34 -40 0
-22 -29 -34 -48 0
-22 -29 -34 -49 0
-22 -29 -40 -48 0
-22 -29 -40 -49 0
-22 -29 -48 -49 0
-22 -34 -40 -48 0
-22 -34 -40 -49 0
-22 -34 -48 -49 0
-22 -40 -48 -49 0
-29 -34 -40 -48 0
-29 -34 -40 -49 0
-29 -34 -48 -49 0
-29 -40 -48 -49 0
-34 -40 -48 -49 0
-3 -9 -17 -23 0
-3 -9 -17 -30 0
-3 -9 -17 -35 0
-3 -9 -17 -41 0
-3 -9 -17 -43 0
-3 -9 -17 -50 0
-3 -9 -23 -30 0
-3 -9 -23 -35 0
-3 -9 -23 -41 0
-3 -9 -23 -43 0
-3 -9 -23 -50 0
-3 -9 -30 -35 0
-3 -9 -30 -41 0
-3 -9 -30 -43 0
-3 -9 -30 -50 0
-3 -9 -35 -41 0
-3 -9 -35 -43 0
-3 -9 -35 -50 0
-3 -9 -41 -43 0
-3 -9 -41 -50 0
-3 -9 -43 -50 0
-3 -17 -23 -30 0
-3 -17 -23 -35 0
-3 -17 -23 -41 0
-3 -17 -23 -43 0
-3 -17 -23 -50 0
-3 -17 -30 -35 0
-3 -17 -30 -41 0
-3 -17 -30 -43 0
-3 -17 -30 -50 0
-3 -17 -35 -41 0
-3 -17 -35 -43 0
-3 -17 -35 -50 0
-3 -17 -41 -43 0
-3 -17 -41 -50 0
-3 -17 -43 -50 0
-3 -23 -30 -35 0
-3 -23 -30 -41 0
-3 -23 -30 -43 0
-3 -23 -30 -50 0
-3 -23 -35 -41 0
-3 -23 -35 -43 0
-3 -23 -35 -50 0
-3 -23 -41 -43 0
-3 -23 -41 -50 0
-3 -23 -43 -50 0
-3 -30 -35 -41 0
-3 -30 -35 -43 0
-3 -30 -35 -50 0
-3 -30 -41 -43 0
-3 -30 -41 -50 0
-3 -30 -43 -50 0
-3 -35 -41 -43 0
-3 -35 -41 -50 0
-3 -35 -43 -50 0
-3 -41 -43 -50 0
-9 -17 -23 -30 0
-9 -17 -23 -35 0
-9 -17 -23 -41 0
-9 -17 -23 -43 0
-9 -17 -23 -50 0
-9 -17 -30 -35 0
-9 -17 -30 -41 0
-9 -17 -30 -43 0
-9 -17 -30 -50 0
-9 -17 -35 -41 0
-9 -17 -35 -43 0
-9 -17 -35 -50 0
-9 -17 -41 -43 0
-9 -17 -41 -50 0
-9 -17 -43 -50 0
-9 -23 -30 -35 0
-9 -23 -30 -41 0
-9 -23 -30 -43 0
-9 -23 -30 -50 0
-9 -23 -35 -41 0
-9 -23 -35 -43 0
-9 -23 -35 -50 0
-9 -23 -41 -43 0
-9 -23 -41 -50 0
-9 -23 -43 -50 0
-9 -30 -35 -41 0
-9 -30 -35 -43 0
-9 -30 -35 -50 0
-9 -30 -41 -43 0
-9 -30 -41 -50 0
-9 -30 -43 -50 0
-9 -35 -41 -43 0
-9 -35 -41 -50 0
-9 -35 -43 -50 0
-9 -41 -43 -50 0
-17 -23 -30 -35 0
-17 -23 -30 -41 0
-17 -23 -30 -43 0
-17 -23 -30 -50 0
-17 -23 -35 -41 0
-17 -23 -35 -43 0
-17 -23 -35 -50 0
-17 -23 -41 -43 0
-17 -23 -41 -50 0
-17 -23 -43 -50 0
-17 -30 -35 -41 0
-17 -30 -35 -43 0
-17 -30 -35 -50 0
-17 -30 -41 -43 0
-17 -30 -41 -50 0
-17 -30 -43 -50 0
-17 -35 -41 -43 0
-17 -35 -41 -50 0
-17 -35 -43 -50 0
-17 -41 -43 -50 0
-23 -30 -35 -41 0
-23 -30 -35 -43 0
-23 -30 -35 -50 0
-23 -30 -41 -43 0
-23 -30 -41 -50 0
-23 -30 -43 -50 0
-23 -35 -41 -43 0
-23 -35 -41 -50 0
-23 -35 -43 -50 0
-23 -41 -43 -50 0
-30 -35 -41 -43 0
-30 -35 -41 -50 0
-30 -35 -43 -50 0
-30 -41 -43 -50 0
-35 -41 -43 -50 0
-4 -10 -18 -24 0
-4 -10 -18 -25 0
-4 -10 -18 -36 0
-4 -10 -18 -42 0
-4 -10 -18 -44 0
-4 -10 -18 -51 0
-4 -10 -24 -25 0
-4 -10 -24 -36 0
-4 -10 -24 -42 0
-4 -10 -24 -44 0
-4 -10 -24 -51 0
-4 -10 -25 -36 0
-4 -10 -25 -42 0
-4 -10 -25 -44 0
-4 -10 -25 -51 0
-4 -10 -36 -42 0
-4 -10 -36 -44 0
-4 -10 -36 -51 0
-4 -10 -42 -44 0
-4 -10 -42 -51 0
-4 -10 -44 -51 0
-4 -18 -24 -25 0
-4 -18 -24 -36 0
-4 -18 -24 -42 0
-4 -18 -24 -44 0
-4 -18 -24 -51 0
-4 -18 -25 -36 0
-4 -18 -25 -42 0
-4 -18 -25 -44 0
-4 -18 -25 -51 0
-4 -18 -36 -42 0
-4 -18 -36 -44 0
-4 -18 -36 -51 0
-4 -18 -42 -44 0
-4 -18 -42 -51 0
-4 -18 -44 -51 0
-4 -24 -25 -36 0
-4 -24 -25 -42 0
-4 -24 -25 -44 0
-4 -24 -25 -51 0
-4 -24 -36 -42 0
-4 -24 -36 -44 0
-4 -24 -36 -51 0
-4 -24 -42 -44 0
-4 -24 -42 -51 0
-4 -24 -44 -51 0
-4 -25 -36 -42 0
-4 -25 -36 -44 0
-4 -25 -36 -51 0
-4 -25 -42 -44 0
-4 -25 -42 -51 0
-4 -25 -44 -51 0
-4 -36 -42 -44 0
-4 -36 -42 -51 0
-4 -36 -44 -51 0
-4 -42 -44 -51 0
-10 -18 -24 -25 0
-10 -18 -24 -36 0
-10 -18 -24 -42 0
-10 -18 -24 -44 0
-10 -18 -24 -51 0
-10 -18 -25 -36 0
-10 -18 -25 -42 0
-10 -18 -25 -44 0
-10 -18 -25 -51 0
-10 -18 -36 -42 0
-10 -18 -36 -44 0
-10 -18 -36 -51 0
-10 -18 -42 -44 0
-10 -18 -42 -51 0
-10 -18 -44 -51 0
-10 -24 -25 -36 0
-10 -24 -25 -42 0
-10 -24 -25 -44 0
-10 -24 -25 -51 0
-10 -24 -36 -42 0
-10 -24 -36 -44 0
-10 -24 -36 -51 0
-10 -24 -42 -44 0
-10 -24 -42 -51 0
-10 -24 -44 -51 0
-10 -25 -36 -42 0
-10 -25 -36 -44 0
-10 -25 -36 -51 0
-10 -25 -42 -44 0
-10 -25 -42 -51 0
-10 -25 -44 -51 0
-10 -36 -42 -44 0
-10 -36 -42 -51 0
-10 -36 -44 -51 0
-10 -42 -44 -51 0
-18 -24 -25 -36 0
-18 -24 -25 -42 0
-18 -24 -25 -44 0
-18 -24 -25 -51 0
-18 -24 -36 -42 0
-18 -24 -36 -44 0
-18 -24 -36 -51 0
-18 -24 -42 -44 0
-18 -24 -42 -51 0
-18 -24 -44 -51 0
-18 -25 -36 -42 0
-18 -25 -36 -44 0
-18 -25 -36 -51 0
-18 -25 -42 -44 0
-18 -25 -42 -51 0
-18 -25 -44 -51 0
-18 -36 -42 -44 0
-18 -36 -42 -51 0
-18 -36 -44 -51 0
-18 -42 -44 -51 0
-24 -25 -36 -42 0
-24 -25 -36 -44 0
-24 -25 -36 -51 0
-24 -25 -42 -44 0
-24 -25 -42 -51 0
-24 -25 -44 -51 0
-24 -36 -42 -44 0
-24 -36 -42 -51 0
-24 -36 -44 -51 0
-24 -42 -44 -51 0
-25 -36 -42 -44 0
-25 -36 -42 -51 0
-25 -36 -44 -51 0
-25 -42 -44 -51 0
-36 -42 -44 -51 0
-5 -11 -13 -19 0
-5 -11 -13 -26 0
-5 -11 -13 -31 0
-5 -11 -13 -37 0
-5 -11 -13 -45 0
-5 -11 -13 -52 0
-5 -11 -19 -26 0
-5 -11 -19 -31 0
-5 -11 -19 -37 0
-5 -11 -19 -45 0
-5 -11 -19 -52 0
-5 -11 -26 -31 0
-5 -11 -26 -37 0
-5 -11 -26 -45 0
-5 -11 -26 -52 0
-5 -11 -31 -37 0
-5 -11 -31 -45 0
-5 -11 -31 -52 0
-5 -11 -37 -45 0
-5 -11 -37 -52 0
-5 -11 -45 -52 0
-5 -13 -19 -26 0
-5 -13 -19 -31 0
-5 -13 -19 -37 0
-5 -13 -19 -45 0
-5 -13 -19 -52 0
-5 -13 -26 -31 0
-5 -13 -26 -37 0
-5 -13 -26 -45 0
-5 -13 -26 -52 0
-5 -13 -31 -37 0
-5 -13 -31 -45 0
-5 -13 -31 -52 0
-5 -13 -37 -45 0
-5 -13 -37 -52 0
-5 -13 -45 -52 0
-5 -19 -26 -31 0
-5 -19 -26 -37 0
-5 -19 -26 -45 0
-5 -19 -26 -52 0
-5 -19 -31 -37 0
-5 -19 -31 -45 0
-5 -19 -31 -52 0
-5 -19 -37 -45 0
-5 -19 -37 -52 0
-5 -19 -45 -52 0
-5 -26 -31 -37 0
-5 -26 -31 -45 0
-5 -26 -31 -52 0
-5 -26 -37 -45 0
-5 -26 -37 -52 0
-5 -26 -45 -52 0
-5 -31 -37 -45 0
-5 -31 -37 -52 0
-5 -31 -45 -52 0
-5 -37 -45 -52 0
-11 -13 -19 -26 0
-11 -13 -19 -31 0
-11 -13 -19 -37 0
-11 -13 -19 -45 0
-11 -13 -19 -52 0
-11 -13 -26 -31 0
-11 -13 -26 -37 0
-11 -13 -26 -45 0
-11 -13 -26 -52 0
-11 -13 -31 -37 0
-11 -13 -31 -45 0
-11 -13 -31 -52 0
-11 -13 -37 -45 0
-11 -13 -37 -52 0
-11 -13 -45 -52 0
-11 -19 -26 -31 0
-11 -19 -26 -37 0
-11 -19 -26 -45 0
-11 -19 -26 -52 0
-11 -19 -31 -37 0
-11 -19 -31 -45 0
-11 -19 -31 -52 0
-11 -19 -37 -45 0
-11 -19 -37 -52 0
-11 -19 -45 -52 0
-11 -26 -31 -37 0
-11 -26 -31 -45 0
-11 -26 -31 -52 0
-11 -26 -37 -45 0
-11 -26 -37 -52 0
-11 -26 -45 -52 0
-11 -31 -37 -45 0
-11 -31 -37 -52 0
-11 -31 -45 -52 0
-11 -37 -45 -52 0
-13 -19 -26 -31 0
-13 -19 -26 -37 0
-13 -19 -26 -45 0
-13 -19 -26 -52 0
-13 -19 -31 -37 0
-13 -19 -31 -45 0
-13 -19 -31 -52 0
-13 -19 -37 -45 0
-13 -19 -37 -52 0
-13 -19 -45 -52 0
-13 -26 -31 -37 0
-13 -26 -31 -45 0
-13 -26 -31 -52 0
-13 -26 -37 -45 0
-13 -26 -37 -52 0
-13 -26 -45 -52 0
-13 -31 -37 -45 0
-13 -31 -37 -52 0
-13 -31 -45 -52 0
-13 -37 -45 -52 0
-19 -26 -31 -37 0
-19 -26 -31 -45 0
-19 -26 -31 -52 0
-19 -26 -37 -45 0
-19 -26 -37 -52 0
-19 -26 -45 -52 0
-19 -31 -37 -45 0
-19 -31 -37 -52 0
-19 -31 -45 -52 0
-19 -37 -45 -52 0
-26 -31 -37 -45 0
-26 -31 -37 -52 0
-26 -31 -45 -52 0
-26 -37 -45 -52 0
-31 -37 -45 -52 0
-6 -12 -14 -20 0
-6 -12 -14 -27 0
-6 -12 -14 -32 0
-6 -12 -14 -38 0
-6 -12 -14 -46 0
-6 -12 -14 -53 0
-6 -12 -20 -27 0
-6 -12 -20 -32 0
-6 -12 -20 -38 0
-6 -12 -20 -46 0
-6 -12 -20 -53 0
-6 -12 -27 -32 0
-6 -12 -27 -38 0
-6 -12 -27 -46 0
-6 -12 -27 -53 0
-6 -12 -32 -38 0
-6 -12 -32 -46 0
-6 -12 -32 -53 0
-6 -12 -38 -46 0
-6 -12 -38 -53 0
-6 -12 -46 -53 0
-6 -14 -20 -27 0
-6 -14 -20 -32 0
-6 -14 -20 -38 0
-6 -14 -20 -46 0
-6 -14 -20 -53 0
-6 -14 -27 -32 0
-6 -14 -27 -38 0
-6 -14 -27 -46 0
-6 -14 -27 -53 0
-6 -14 -32 -38 0
-6 -14 -32 -46 0
-6 -14 -32 -53 0
-6 -14 -38 -46 0
-6 -14 -38 -53 0
-6 -14 -46 -53 0
-6 -20 -27 -32 0
-6 -20 -27 -38 0
-6 -20 -27 -46 0
-6 -20 -27 -53 0
-6 -20 -32 -38 0
-6 -20 -32 -46 0
-6 -20 -32 -53 0
-6 -20 -38 -46 0
-6 -20 -38 -53 0
-6 -20 -46 -53 0
-6 -27 -32 -38 0
-6 -27 -32 -46 0
-6 -27 -32 -53 0
-6 -27 -38 -46 0
-6 -27 -38 -53 0
-6 -27 -46 -53 0
-6 -32 -38 -46 0
-6 -32 -38 -53 0
-6 -32 -46 -53 0
-6 -38 -46 -53 0
-12 -14 -20 -27 0
-12 -14 -20 -32 0
-12 -14 -20 -38 0
-12 -14 -20 -46 0
-12 -14 -20 -53 0
-12 -14 -27 -32 0
-12 -14 -27 -38 0
-12 -14 -27 -46 0
-12 -14 -27 -53 0
-12 -14 -32 -38 0
-12 -14 -32 -46 0
-12 -14 -32 -53 0
-12 -14 -38 -46 0
-12 -14 -38 -53 0
-12 -14 -46 -53 0
-12 -20 -27 -32 0
-12 -20 -27 -38 0
-12 -20 -27 -46 0
-12 -20 -27 -53 0
-12 -20 -32 -38 0
-12 -20 -32 -46 0
-12 -20 -32 -53 0
-12 -20 -38 -46 0
-12 -20 -38 -53 0
-12 -20 -46 -53 0
-12 -27 -32 -38 0
-12 -27 -32 -46 0
-12 -27 -32 -53 0
-12 -27 -38 -46 0
-12 -27 -38 -53 0
-12 -27 -46 -53 0
-12 -32 -38 -46 0
-12 -32 -38 -53 0
-12 -32 -46 -53 0
-12 -38 -46 -53 0
-14 -20 -27 -32 0
-14 -20 -27 -38 0
-14 -20 -27 -46 0
-14 -20 -27 -53 0
-14 -20 -32 -38 0
-14 -20 -32 -46 0
-14 -20 -32 -53 0
-14 -20 -38 -46 0
-14 -20 -38 -53 0
-14 -20 -46 -53 0
-14 -27 -32 -38 0
-14 -27 -32 -46 0
-14 -27 -32 -53 0
-14 -27 -38 -46 0
-14 -27 -38 -53 0
-14 -27 -46 -53 0
-14 -32 -38 -46 0
-14 -32 -38 -53 0
-14 -32 -46 -53 0
-14 -38 -46 -53 0
-20 -27 -32 -38 0
-20 -27 -32 -46 0
-20 -27 -32 -53 0
-20 -27 -38 -46 0
-20 -27 -38 -53 0
-20 -27 -46 -53 0
-20 -32 -38 -46 0
-20 -32 -38 -53 0
-20 -32 -46 -53 0
-20 -38 -46 -53 0
-27 -32 -38 -46 0
-27 -32 -38 -53 0
-27 -32 -46 -53 0
-27 -38 -46 -53 0
-32 -38 -46 -53 0
-1 -11 -14 -20 0
-1 -11 -14 -25 0
-1 -11 -14 -36 0
-1 -11 -14 -40 0
-1 -11 -14 -46 0
-1 -11 -14 -54 0
-1 -11 -20 -25 0
-1 -11 -20 -36 0
-1 -11 -20 -40 0
-1 -11 -20 -46 0
-1 -11 -20 -54 0
-1 -11 -25 -36 0
-1 -11 -25 -40 0
-1 -11 -25 -46 0
-1 -11 -25 -54 0
-1 -11 -36 -40 0
-1 -11 -36 -46 0
-1 -11 -36 -54 0
-1 -11 -40 -46 0
-1 -11 -40 -54 0
-1 -11 -46 -54 0
-1 -14 -20 -25 0
-1 -14 -20 -36 0
-1 -14 -20 -40 0
-1 -14 -20 -46 0
-1 -14 -20 -54 0
-1 -14 -25 -36 0
-1 -14 -25 -40 0
-1 -14 -25 -46 0
-1 -14 -25 -54 0
-1 -14 -36 -40 0
-1 -14 -36 -46 0
-1 -14 -36 -54 0
-1 -14 -40 -46 0
-1 -14 -40 -54 0
-1 -14 -46 -54 0
-1 -20 -25 -36 0
-1 -20 -25 -40 0
-1 -20 -25 -46 0
-1 -20 -25 -54 0
-1 -20 -36 -40 0
-1 -20 -36 -46 0
-1 -20 -36 -54 0
-1 -20 -40 -46 0
-1 -20 -40 -54 0
-1 -20 -46 -54 0
-1 -25 -36 -40 0
-1 -25 -36 -46 0
-1 -25 -36 -54 0
-1 -25 -40 -46 0
-1 -25 -40 -54 0
-1 -25 -46 -54 0
-1 -36 -40 -46 0
-1 -36 -40 -54 0
-1 -36 -46 -54 0
-1 -40 -46 -54 0
-11 -14 -20 -25 0
-11 -14 -20 -36 0
-11 -14 -20 -40 0
-11 -14 -20 -46 0
-11 -14 -20 -54 0
-11 -14 -25 -36 0
-11 -14 -25 -40 0
-11 -14 -25 -46 0
-11 -14 -25 -54 0
-11 -14 -36 -40 0
-11 -14 -36 -46 0
-11 -14 -36 -54 0
-11 -14 -40 -46 0
-11 -14 -40 -54 0
-11 -14 -46 -54 0
-11 -20 -25 -36 0
-11 -20 -25 -40 0
-11 -20 -25 -46 0
-11 -20 -25 -54 0
-11 -20 -36 -40 0
-11 -20 -36 -46 0
-11 -20 -36 -54 0
-11 -20 -40 -46 0
-11 -20 -40 -54 0
-11 -20 -46 -54 0
-11 -25 -36 -40 0
-11 -25 -36 -46 0
-11 -25 -36 -54 0
-11 -25 -40 -46 0
-11 -25 -40 -54 0
-11 -25 -46 -54 0
-11 -36 -40 -46 0
-11 -36 -40 -54 0
-11 -36 -46 -54 0
-11 -40 -46 -54 0
-14 -20 -25 -36 0
-14 -20 -25 -40 0
-14 -20 -25 -46 0
-14 -20 -25 -54 0
-14 -20 -36 -40 0
-14 -20 -36 -46 0
-14 -20 -36 -54 0
-14 -20 -40 -46 0
-14 -20 -40 -54 0
-14 -20 -46 -54 0
-14 -25 -36 -40 0
-14 -25 -36 -46 0
-14 -25 -36 -54 0
-14 -25 -40 -46 0
-14 -25 -40 -54 0
-14 -25 -46 -54 0
-14 -36 -40 -46 0
-14 -36 -40 -54 0
-14 -36 -46 -54 0
-14 -40 -46 -54 0
-20 -25 -36 -40 0
-20 -25 -36 -46 0
-20 -25 -36 -54 0
-20 -25 -40 -46 0
-20 -25 -40 -54 0
-20 -25 -46 -54 0
-20 -36 -40 -46 0
-20 -36 -40 -54 0
-20 -36 -46 -54 0
-20 -40 -46 -54 0
-25 -36 -40 -46 0
-25 -36 -40 -54 0
-25 -36 -46 -54 0
-25 -40 -46 -54 0
-36 -40 -46 -54 0
-2 -12 -15 -21 0
-2 -12 -15 -26 0
-2 -12 -15 -31 0
-2 -12 -15 -41 0
-2 -12 -15 -47 0
-2 -12 -15 -49 0
-2 -12 -21 -26 0
-2 -12 -21 -31 0
-2 -12 -21 -41 0
-2 -12 -21 -47 0
-2 -12 -21 -49 0
-2 -12 -26 -31 0
-2 -12 -26 -41 0
-2 -12 -26 -47 0
-2 -12 -26 -49 0
-2 -12 -31 -41 0
-2 -12 -31 -47 0
-2 -12 -31 -49 0
-2 -12 -41 -47 0
-2 -12 -41 -49 0
-2 -12 -47 -49 0
-2 -15 -21 -26 0
-2 -15 -21 -31 0
-2 -15 -21 -41 0
-2 -15 -21 -47 0
-2 -15 -21 -49 0
-2 -15 -26 -31 0
-2 -15 -26 -41 0
-2 -15 -26 -47 0
-2 -15 -26 -49 0
-2 -15 -31 -41 0
-2 -15 -31 -47 0
-2 -15 -31 -49 0
-2 -15 -41 -47 0
-2 -15 -41 -49 0
-2 -15 -47 -49 0
-2 -21 -26 -31 0
-2 -21 -26 -41 0
-2 -21 -26 -47 0
-2 -21 -26 -49 0
-2 -21 -31 -41 0
-2 -21 -31 -47 0
-2 -21 -31 -49 0
-2 -21 -41 -47 0
-2 -21 -41 -49 0
-2 -21 -47 -49 0
-2 -26 -31 -41 0
-2 -26 -31 -47 0
-2 -26 -31 -49 0
-2 -26 -41 -47 0
-2 -26 -41 -49 0
-2 -26 -47 -49 0
-2 -31 -41 -47 0
-2 -31 -41 -49 0
-2 -31 -47 -49 0
-2 -41 -47 -49 0
-12 -15 -21 -26 0
-12 -15 -21 -31 0
-12 -15 -21 -41 0
-12 -15 -21 -47 0
-12 -15 -21 -49 0
-12 -15 -26 -31 0
-12 -15 -26 -41 0
-12 -15 -26 -47 0
-12 -15 -26 -49 0
-12 -15 -31 -41 0
-12 -15 -31 -47 0
-12 -15 -31 -49 0
-12 -15 -41 -47 0
-12 -15 -41 -49 0
-12 -15 -47 -49 0
-12 -21 -26 -31 0
-12 -21 -26 -41 0
-12 -21 -26 -47 0
-12 -21 -26 -49 0
-12 -21 -31 -41 0
-12 -21 -31 -47 0
-12 -21 -31 -49 0
-12 -21 -41 -47 0
-12 -21 -41 -49 0
-12 -21 -47 -49 0
-12 -26 -31 -41 0
-12 -26 -31 -47 0
-12 -26 -31 -49 0
-12 -26 -41 -47 0
-12 -26 -41 -49 0
-12 -26 -47 -49 0
-12 -31 -41 -47 0
-12 -31 -41 -49 0
-12 -31 -47 -49 0
-12 -41 -47 -49 0
-15 -21 -26 -31 0
-15 -21 -26 -41 0
-15 -21 -26 -47 0
-15 -21 -26 -49 0
-15 -21 -31 -41 0
-15 -21 -31 -47 0
-15 -21 -31 -49 0
-15 -21 -41 -47 0
-15 -21 -41 -49 0
-15 -21 -47 -49 0
-15 -26 -31 -41 0
-15 -26 -31 -47 0
-15 -26 -31 -49 0
-15 -26 -41 -47 0
-15 -26 -41 -49 0
-15 -26 -47 -49 0
-15 -31 -41 -47 0
-15 -31 -41 -49 0
-15 -31 -47 -49 0
-15 -41 -47 -49 0
-21 -26 -31 -41 0
-21 -26 -31 -47 0
-21 -26 -31 -49 0
-21 -26 -41 -47 0
-21 -26 -41 -49 0
-21 -26 -47 -49 0
-21 -31 -41 -47 0
-21 -31 -41 -49 0
-21 -31 -47 -49 0
-21 -41 -47 -49 0
-26 -31 -41 -47 0
-26 -31 -41 -49 0
-26 -31 -47 -49 0
-26 -41 -47 -49 0
-31 -41 -47 -49 0
-3 -7 -16 -22 0
-3 -7 -16 -27 0
-3 -7 -16 -32 0
-3 -7 -16 -42 0
-3 -7 -16 -48 0
-3 -7 -16 -50 0
-3 -7 -22 -27 0
-3 -7 -22 -32 0
-3 -7 -22 -42 0
-3 -7 -22 -48 0
-3 -7 -22 -50 0
-3 -7 -27 -32 0
-3 -7 -27 -42 0
-3 -7 -27 -48 0
-3 -7 -27 -50 0
-3 -7 -32 -42 0
-3 -7 -32 -48 0
-3 -7 -32 -50 0
-3 -7 -42 -48 0
-3 -7 -42 -50 0
-3 -7 -48 -50 0
-3 -16 -22 -27 0
-3 -16 -22 -32 0
-3 -16 -22 -42 0
-3 -16 -22 -48 0
-3 -16 -22 -50 0
-3 -16 -27 -32 0
-3 -16 -27 -42 0
-3 -16 -27 -48 0
-3 -16 -27 -50 0
-3 -16 -32 -42 0
-3 -16 -32 -48 0
-3 -16 -32 -50 0
-3 -16 -42 -48 0
-3 -16 -42 -50 0
-3 -16 -48 -50 0
-3 -22 -27 -32 0
-3 -22 -27 -42 0
-3 -22 -27 -48 0
-3 -22 -27 -50 0
-3 -22 -32 -42 0
-3 -22 -32 -48 0
-3 -22 -32 -50 0
-3 -22 -42 -48 0
-3 -22 -42 -50 0
-3 -22 -48 -50 0
-3 -27 -32 -42 0
-3 -27 -32 -48 0
-3 -27 -32 -50 0
-3 -27 -42 -48 0
-3 -27 -42 -50 0
-3 -27 -48 -50 0
-3 -32 -42 -48 0
-3 -32 -42 -50 0
-3 -32 -48 -50 0
-3 -42 -48 -50 0
-7 -16 -22 -27 0
-7 -16 -22 -32 0
-7 -16 -22 -42 0
-7 -16 -22 -48 0
-7 -16 -22 -50 0
-7 -16 -27 -32 0
-7 -16 -27 -42 0
-7 -16 -27 -48 0
-7 -16 -27 -50 0
-7 -16 -32 -42 0
-7 -16 -32 -48 0
-7 -16 -32 -50 0
-7 -16 -42 -48 0
-7 -16 -42 -50 0
-7 -16 -48 -50 0
-7 -22 -27 -32 0
-7 -22 -27 -42 0
-7 -22 -27 -48 0
-7 -22 -27 -50 0
-7 -22 -32 -42 0
-7 -22 -32 -48 0
-7 -22 -32 -50 0
-7 -22 -42 -48 0
-7 -22 -42 -50 0
-7 -22 -48 -50 0
-7 -27 -32 -42 0
-7 -27 -32 -48 0
-7 -27 -32 -50 0
-7 -27 -42 -48 0
-7 -27 -42 -50 0
-7 -27 -48 -50 0
-7 -32 -42 -48 0
-7 -32 -42 -50 0
-7 -32 -48 -50 0
-7 -42 -48 -50 0
-16 -22 -27 -32 0
-16 -22 -27 -42 0
-16 -22 -27 -48 0
-16 -22 -27 -50 0
-16 -22 -32 -42 0
-16 -22 -32 -48 0
-16 -22 -32 -50 0
-16 -22 -42 -48 0
-16 -22 -42 -50 0
-16 -22 -48 -50 0
-16 -27 -32 -42 0
-16 -27 -32 -48 0
-16 -27 -32 -50 0
-16 -27 -42 -48 0
-16 -27 -42 -50 0
-16 -27 -48 -50 0
-16 -32 -42 -48 0
-16 -32 -42 -50 0
-16 -32 -48 -50 0
-16 -42 -48 -50 0
-22 -27 -32 -42 0
-22 -27 -32 -48 0
-22 -27 -32 -50 0
-22 -27 -42 -48 0
-22 -27 -42 -50 0
-22 -27 -48 -50 0
-22 -32 -42 -48 0
-22 -32 -42 -50 0
-22 -32 -48 -50 0
-22 -42 -48 -50 0
-27 -32 -42 -48 0
-27 -32 -42 -50 0
-27 -32 -48 -50 0
-27 -42 -48 -50 0
-32 -42 -48 -50 0
-4 -8 -17 -23 0
-4 -8 -17 -28 0
-4 -8 -17 -33 0
-4 -8 -17 -37 0
-4 -8 -17 -43 0
-4 -8 -17 -51 0
-4 -8 -23 -28 0
-4 -8 -23 -33 0
-4 -8 -23 -37 0
-4 -8 -23 -43 0
-4 -8 -23 -51 0
-4 -8 -28 -33 0
-4 -8 -28 -37 0
-4 -8 -28 -43 0
-4 -8 -28 -51 0
-4 -8 -33 -37 0
-4 -8 -33 -43 0
-4 -8 -33 -51 0
-4 -8 -37 -43 0
-4 -8 -37 -51 0
-4 -8 -43 -51 0
-4 -17 -23 -28 0
-4 -17 -23 -33 0
-4 -17 -23 -37 0
-4 -17 -23 -43 0
-4 -17 -23 -51 0
-4 -17 -28 -33 0
-4 -17 -28 -37 0
-4 -17 -28 -43 0
-4 -17 -28 -51 0
-4 -17 -33 -37 0
-4 -17 -33 -43 0
-4 -17 -33 -51 0
-4 -17 -37 -43 0
-4 -17 -37 -51 0
-4 -17 -43 -51 0
-4 -23 -28 -33 0
-4 -23 -28 -37 0
-4 -23 -28 -43 0
-4 -23 -28 -51 0
-4 -23 -33 -37 0
-4 -23 -33 -43 0
-4 -23 -33 -51 0
-4 -23 -37 -43 0
-4 -23 -37 -51 0
-4 -23 -43 -51 0
-4 -28 -33 -37 0
-4 -28 -33 -43 0
-4 -28 -33 -51 0
-4 -28 -37 -43 0
-4 -28 -37 -51 0
-4 -28 -43 -51 0
-4 -33 -37 -43 0
-4 -33 -37 -51 0
-4 -33 -43 -51 0
-4 -37 -43 -51 0
-8 -17 -23 -28 0
-8 -17 -23 -33 0
-8 -17 -23 -37 0
-8 -17 -23 -43 0
-8 -17 -23 -51 0
-8 -17 -28 -33 0
-8 -17 -28 -37 0
-8 -17 -28 -43 0
-8 -17 -28 -51 0
-8 -17 -33 -37 0
-8 -17 -33 -43 0
-8 -17 -33 -51 0
-8 -17 -37 -43 0
-8 -17 -37 -51 0
-8 -17 -43 -51 0
-8 -23 -28 -33 0
-8 -23 -28 -37 0
-8 -23 -28 -43 0
-8 -23 -28 -51 0
-8 -23 -33 -37 0
-8 -23 -33 -43 0
-8 -23 -33 -51 0
-8 -23 -37 -43 0
-8 -23 -37 -51 0
-8 -23 -43 -51 0
-8 -28 -33 -37 0
-8 -28 -33 -43 0
-8 -28 -33 -51 0
-8 -28 -37 -43 0
-8 -28 -37 -51 0
-8 -28 -43 -51 0
-8 -33 -37 -43 0
-8 -33 -37 -51 0
-8 -33 -43 -51 0
-8 -37 -43 -51 0
-17 -23 -28 -33 0
-17 -23 -28 -37 0
-17 -23 -28 -43 0
-17 -23 -28 -51 0
-17 -23 -33 -37 0
-17 -23 -33 -43 0
-17 -23 -33 -51 0
-17 -23 -37 -43 0
-17 -23 -37 -51 0
-17 -23 -43 -51 0
-17 -28 -33 -37 0
-17 -28 -33 -43 0
-17 -28 -33 -51 0
-17 -28 -37 -43 0
-17 -28 -37 -51 0
-17 -28 -43 -51 0
-17 -33 -37 -43 0
-17 -33 -37 -51 0
-17 -33 -43 -51 0
-17 -37 -43 -51 0
-23 -28 -33 -37 0
-23 -28 -33 -43 0
-23 -28 -33 -51 0
-23 -28 -37 -43 0
-23 -28 -37 -51 0
-23 -28 -43 -51 0
-23 -33 -37 -43 0
-23 -33 -37 -51 0
-23 -33 -43 -51 0
-23 -37 -43 -51 0
-28 -33 -37 -43 0
-28 -33 -37 -51 0
-28 -33 -43 -51 0
-28 -37 -43 -51 0
-33 -37 -43 -51 0
-5 -9 -18 -24 0
-5 -9 -18 -29 0
-5 -9 -18 -34 0
-5 -9 -18 -38 0
-5 -9 -18 -44 0
-5 -9 -18 -52 0
-5 -9 -24 -29 0
-5 -9 -24 -34 0
-5 -9 -24 -38 0
-5 -9 -24 -44 0
-5 -9 -24 -52 0
-5 -9 -29 -34 0
-5 -9 -29 -38 0
-5 -9 -29 -44 0
-5 -9 -29 -52 0
-5 -9 -34 -38 0
-5 -9 -34 -44 0
-5 -9 -34 -52 0
-5 -9 -38 -44 0
-5 -9 -38 -52 0
-5 -9 -44 -52 0
-5 -18 -24 -29 0
-5 -18 -24 -34 0
-5 -18 -24 -38 0
-5 -18 -24 -44 0
-5 -18 -24 -52 0
-5 -18 -29 -34 0
-5 -18 -29 -38 0
-5 -18 -29 -44 0
-5 -18 -29 -52 0
-5 -18 -34 -38 0
-5 -18 -34 -44 0
-5 -18 -34 -52 0
-5 -18 -38 -44 0
-5 -18 -38 -52 0
-5 -18 -44 -52 0
-5 -24 -29 -34 0
-5 -24 -29 -38 0
-5 -24 -29 -44 0
-5 -24 -29 -52 0
-5 -24 -34 -38 0
-5 -24 -34 -44 0
-5 -24 -34 -52 0
-5 -24 -38 -44 0
-5 -24 -38 -52 0
-5 -24 -44 -52 0
-5 -29 -34 -38 0
-5 -29 -34 -44 0
-5 -29 -34 -52 0
-5 -29 -38 -44 0
-5 -29 -38 -52 0
-5 -29 -44 -52 0
-5 -34 -38 -44 0
-5 -34 -38 -52 0
-5 -34 -44 -52 0
-5 -38 -44 -52 0
-9 -18 -24 -29 0
-9 -18 -24 -34 0
-9 -18 -24 -38 0
-9 -18 -24 -44 0
-9 -18 -24 -52 0
-9 -18 -29 -34 0
-9 -18 -29 -38 0
-9 -18 -29 -44 0
-9 -18 -29 -52 0
-9 -18 -34 -38 0
-9 -18 -34 -44 0
-9 -18 -34 -52 0
-9 -18 -38 -44 0
-9 -18 -38 -52 0
-9 -18 -44 -52 0
-9 -24 -29 -34 0
-9 -24 -29 -38 0
-9 -24 -29 -44 0
-9 -24 -29 -52 0
-9 -24 -34 -38 0
-9 -24 -34 -44 0
-9 -24 -34 -52 0
-9 -24 -38 -44 0
-9 -24 -38 -52 0
-9 -24 -44 -52 0
-9 -29 -34 -38 0
-9 -29 -34 -44 0
-9 -29 -34 -52 0
-9 -29 -38 -44 0
-9 -29 -38 -52 0
-9 -29 -44 -52 0
-9 -34 -38 -44 0
-9 -34 -38 -52 0
-9 -34 -44 -52 0
-9 -38 -44 -52 0
-18 -24 -29 -34 0
-18 -24 -29 -38 0
-18 -24 -29 -44 0
-18 -24 -29 -52 0
-18 -24 -34 -38 0
-18 -24 -34 -44 0
-18 -24 -34 -52 0
-18 -24 -38 -44 0
-18 -24 -38 -52 0
-18 -24 -44 -52 0
-18 -29 -34 -38 0
-18 -29 -34 -44 0
-18 -29 -34 -52 0
-18 -29 -38 -44 0
-18 -29 -38 -52 0
-18 -29 -44 -52 0
-18 -34 -38 -44 0
-18 -34 -38 -52 0
-18 -34 -44 -52 0
-18 -38 -44 -52 0
-24 -29 -34 -38 0
-24 -29 -34 -44 0
-24 -29 -34 -52 0
-24 -29 -38 -44 0
-24 -29 -38 -52 0
-24 -29 -44 -52 0
-24 -34 -38 -44 0
-24 -34 -38 -52 0
-24 -34 -44 -52 0
-24 -38 -44 -52 0
-29 -34 -38 -44 0
-29 -34 -38 -52 0
-29 -34 -44 -52 0
-29 -38 -44 -52 0
-34 -38 -44 -52 0
-6 -10 -13 -19 0
-6 -10 -13 -30 0
-6 -10 -13 -35 0
-6 -10 -13 -39 0
-6 -10 -13 -45 0
-6 -10 -13 -53 0
-6 -10 -19 -30 0
-6 -10 -19 -35 0
-6 -10 -19 -39 0
-6 -10 -19 -45 0
-6 -10 -19 -53 0
-6 -10 -30 -35 0
-6 -10 -30 -39 0
-6 -10 -30 -45 0
-6 -10 -30 -53 0
-6 -10 -35 -39 0
-6 -10 -35 -45 0
-6 -10 -35 -53 0
-6 -10 -39 -45 0
-6 -10 -39 -53 0
-6 -10 -45 -53 0
-6 -13 -19 -30 0
-6 -13 -19 -35 0
-6 -13 -19 -39 0
-6 -13 -19 -45 0
-6 -13 -19 -53 0
-6 -13 -30 -35 0
-6 -13 -30 -39 0
-6 -13 -30 -45 0
-6 -13 -30 -53 0
-6 -13 -35 -39 0
-6 -13 -35 -45 0
-6 -13 -35 -53 0
-6 -13 -39 -45 0
-6 -13 -39 -53 0
-6 -13 -45 -53 0
-6 -19 -30 -35 0
-6 -19 -30 -39 0
-6 -19 -30 -45 0
-6 -19 -30 -53 0
-6 -19 -35 -39 0
-6 -19 -35 -45 0
-6 -19 -35 -53 0
-6 -19 -39 -45 0
-6 -19 -39 -53 0
-6 -19 -45 -53 0
-6 -30 -35 -39 0
-6 -30 -35 -45 0
-6 -30 -35 -53 0
-6 -30 -39 -45 0
-6 -30 -39 -53 0
-6 -30 -45 -53 0
-6 -35 -39 -45 0
-6 -35 -39 -53 0
-6 -35 -45 -53 0
-6 -39 -45 -53 0
-10 -13 -19 -30 0
-10 -13 -19 -35 0
-10 -13 -19 -39 0
-10 -13 -19 -45 0
-10 -13 -19 -53 0
-10 -13 -30 -35 0
-10 -13 -30 -39 0
-10 -13 -30 -45 0
-10 -13 -30 -53 0
-10 -13 -35 -39 0
-10 -13 -35 -45 0
-10 -13 -35 -53 0
-10 -13 -39 -45 0
-10 -13 -39 -53 0
-10 -13 -45 -53 0
-10 -19 -30 -35 0
-10 -19 -30 -39 0
-10 -19 -30 -45 0
-10 -19 -30 -53 0
-10 -19 -35 -39 0
-10 -19 -35 -45 0
-10 -19 -35 -53 0
-10 -19 -39 -45 0
-10 -19 -39 -53 0
-10 -19 -45 -53 0
-10 -30 -35 -39 0
-10 -30 -35 -45 0
-10 -30 -35 -53 0
-10 -30 -39 -45 0
-10 -30 -39 -53 0
-10 -30 -45 -53 0
-10 -35 -39 -45 0
-10 -35 -39 -53 0
-10 -35 -45 -53 0
-10 -39 -45 -53 0
-13 -19 -30 -35 0
-13 -19 -30 -39 0
-13 -19 -30 -45 0
-13 -19 -30 -53 0
-13 -19 -35 -39 0
-13 -19 -35 -45 0
-13 -19 -35 -53 0
-13 -19 -39 -45 0
-13 -19 -39 -53 0
-13 -19 -45 -53 0
-13 -30 -35 -39 0
-13 -30 -35 -45 0
-13 -30 -35 -53 0
-13 -30 -39 -45 0
-13 -30 -39 -53 0
-13 -30 -45 -53 0
-13 -35 -39 -45 0
-13 -35 -39 -53 0
-13 -35 -45 -53 0
-13 -39 -45 -53 0
-19 -30 -35 -39 0
-19 -30 -35 -45 0
-19 -30 -35 -53 0
-19 -30 -39 -45 0
-19 -30 -39 -53 0
-19 -30 -45 -53 0
-19 -35 -39 -45 0
-19 -35 -39 -53 0
-19 -35 -45 -53 0
-19 -39 -45 -53 0
-30 -35 -39 -45 0
-30 -35 -39 -53 0
-30 -35 -45 -53 0
-30 -39 -45 -53 0
-35 -39 -45 -53 0
-1 -8 -18 -21 0
-1 -8 -18 -27 0
-1 -8 -18 -35 0
-1 -8 -18 -41 0
-1 -8 -18 -44 0
-1 -8 -18 -52 0
-1 -8 -21 -27 0
-1 -8 -21 -35 0
-1 -8 -21 -41 0
-1 -8 -21 -44 0
-1 -8 -21 -52 0
-1 -8 -27 -35 0
-1 -8 -27 -41 0
-1 -8 -27 -44 0
-1 -8 -27 -52 0
-1 -8 -35 -41 0
-1 -8 -35 -44 0
-1 -8 -35 -52 0
-1 -8 -41 -44 0
-1 -8 -41 -52 0
-1 -8 -44 -52 0
-1 -18 -21 -27 0
-1 -18 -21 -35 0
-1 -18 -21 -41 0
-1 -18 -21 -44 0
-1 -18 -21 -52 0
-1 -18 -27 -35 0
-1 -18 -27 -41 0
-1 -18 -27 -44 0
-1 -18 -27 -52 0
-1 -18 -35 -41 0
-1 -18 -35 -44 0
-1 -18 -35 -52 0
-1 -18 -41 -44 0
-1 -18 -41 -52 0
-1 -18 -44 -52 0
-1 -21 -27 -35 0
-1 -21 -27 -41 0
-1 -21 -27 -44 0
-1 -21 -27 -52 0
-1 -21 -35 -41 0
-1 -21 -35 -44 0
-1 -21 -35 -52 0
-1 -21 -41 -44 0
-1 -21 -41 -52 0
-1 -21 -44 -52 0
-1 -27 -35 -41 0
-1 -27 -35 -44 0
-1 -27 -35 -52 0
-1 -27 -41 -44 0
-1 -27 -41 -52 0
-1 -27 -44 -52 0
-1 -35 -41 -44 0
-1 -35 -41 -52 0
-1 -35 -44 -52 0
-1 -41 -44 -52 0
-8 -18 -21 -27 0
-8 -18 -21 -35 0
-8 -18 -21 -41 0
-8 -18 -21 -44 0
-8 -18 -21 -52 0
-8 -18 -27 -35 0
-8 -18 -27 -41 0
-8 -18 -27 -44 0
-8 -18 -27 -52 0
-8 -18 -35 -41 0
-8 -18 -35 -44 0
-8 -18 -35 -52 0
-8 -18 -41 -44 0
-8 -18 -41 -52 0
-8 -18 -44 -52 0
-8 -21 -27 -35 0
-8 -21 -27 -41 0
-8 -21 -27 -44 0
-8 -21 -27 -52 0
-8 -21 -35 -41 0
-8 -21 -35 -44 0
-8 -21 -35 -52 0
-8 -21 -41 -44 0
-8 -21 -41 -52 0
-8 -21 -44 -52 0
-8 -27 -35 -41 0
-8 -27 -35 -44 0
-8 -27 -35 -52 0
-8 -27 -41 -44 0
-8 -27 -41 -52 0
-8 -27 -44 -52 0
-8 -35 -41 -44 0
-8 -35 -41 -52 0
-8 -35 -44 -52 0
-8 -41 -44 -52 0
-18 -21 -27 -35 0
-18 -21 -27 -41 0
-18 -21 -27 -44 0
-18 -21 -27 -52 0
-18 -21 -35 -41 0
-18 -21 -35 -44 0
-18 -21 -35 -52 0
-18 -21 -41 -44 0
-18 -21 -41 -52 0
-18 -21 -44 -52 0
-18 -27 -35 -41 0
-18 -27 -35 -44 0
-18 -27 -35 -52 0
-18 -27 -41 -44 0
-18 -27 -41 -52 0
-18 -27 -44 -52 0
-18 -35 -41 -44 0
-18 -35 -41 -52 0
-18 -35 -44 -52 0
-18 -41 -44 -52 0
-21 -27 -35 -41 0
-21 -27 -35 -44 0
-21 -27 -35 -52 0
-21 -27 -41 -44 0
-21 -27 -41 -52 0
-21 -27 -44 -52 0
-21 -35 -41 -44 0
-21 -35 -41 -52 0
-21 -35 -44 -52 0
-21 -41 -44 -52 0
-27 -35 -41 -44 0
-27 -35 -41 -52 0
-27 -35 -44 -52 0
-27 -41 -44 -52 0
-35 -41 -44 -52 0
-2 -9 -13 -22 0
-2 -9 -13 -28 0
-2 -9 -13 -36 0
-2 -9 -13 -42 0
-2 -9 -13 -45 0
-2 -9 -13 -53 0
-2 -9 -22 -28 0
-2 -9 -22 -36 0
-2 -9 -22 -42 0
-2 -9 -22 -45 0
-2 -9 -22 -53 0
-2 -9 -28 -36 0
-2 -9 -28 -42 0
-2 -9 -28 -45 0
-2 -9 -28 -53 0
-2 -9 -36 -42 0
-2 -9 -36 -45 0
-2 -9 -36 -53 0
-2 -9 -42 -45 0
-2 -9 -42 -53 0
-2 -9 -45 -53 0
-2 -13 -22 -28 0
-2 -13 -22 -36 0
-2 -13 -22 -42 0
-2 -13 -22 -45 0
-2 -13 -22 -53 0
-2 -13 -28 -36 0
-2 -13 -28 -42 0
-2 -13 -28 -45 0
-2 -13 -28 -53 0
-2 -13 -36 -42 0
-2 -13 -36 -45 0
-2 -13 -36 -53 0
-2 -13 -42 -45 0
-2 -13 -42 -53 0
-2 -13 -45 -53 0
-2 -22 -28 -36 0
-2 -22 -28 -42 0
-2 -22 -28 -45 0
-2 -22 -28 -53 0
-2 -22 -36 -42 0
-2 -22 -36 -45 0
-2 -22 -36 -53 0
-2 -22 -42 -45 0
-2 -22 -42 -53 0
-2 -22 -45 -53 0
-2 -28 -36 -42 0
-2 -28 -36 -45 0
-2 -28 -36 -53 0
-2 -28 -42 -45 0
-2 -28 -42 -53 0
-2 -28 -45 -53 0
-2 -36 -42 -45 0
-2 -36 -42 -53 0
-2 -36 -45 -53 0
-2 -42 -45 -53 0
-9 -13 -22 -28 0
-9 -13 -22 -36 0
-9 -13 -22 -42 0
-9 -13 -22 -45 0
-9 -13 -22 -53 0
-9 -13 -28 -36 0
-9 -13 -28 -42 0
-9 -13 -28 -45 0
-9 -13 -28 -53 0
-9 -13 -36 -42 0
-9 -13 -36 -45 0
-9 -13 -36 -53 0
-9 -13 -42 -45 0
-9 -13 -42 -53 0
-9 -13 -45 -53 0
-9 -22 -28 -36 0
-9 -22 -28 -42 0
-9 -22 -28 -45 0
-9 -22 -28 -53 0
-9 -22 -36 -42 0
-9 -22 -36 -45 0
-9 -22 -36 -53 0
-9 -22 -42 -45 0
-9 -22 -42 -53 0
-9 -22 -45 -53 0
-9 -28 -36 -42 0
-9 -28 -36 -45 0
-9 -28 -36 -53 0
-9 -28 -42 -45 0
-9 -28 -42 -53 0
-9 -28 -45 -53 0
-9 -36 -42 -45 0
-9 -36 -42 -53 0
-9 -36 -45 -53 0
-9 -42 -45 -53 0
-13 -22 -28 -36 0
-13 -22 -28 -42 0
-13 -22 -28 -45 0
-13 -22 -28 -53 0
-13 -22 -36 -42 0
-13 -22 -36 -45 0
-13 -22 -36 -53 0
-13 -22 -42 -45 0
-13 -22 -42 -53 0
-13 -22 -45 -53 0
-13 -28 -36 -42 0
-13 -28 -36 -45 0
-13 -28 -36 -53 0
-13 -28 -42 -45 0
-13 -28 -42 -53 0
-13 -28 -45 -53 0
-13 -36 -42 -45 0
-13 -36 -42 -53 0
-13 -36 -45 -53 0
-13 -42 -45 -53 0
-22 -28 -36 -42 0
-22 -28 -36 -45 0
-22 -28 -36 -53 0
-22 -28 -42 -45 0
-22 -28 -42 -53 0
-22 -28 -45 -53 0
-22 -36 -42 -45 0
-22 -36 -42 -53 0
-22 -36 -45 -53 0
-22 -42 -45 -53 0
-28 -36 -42 -45 0
-28 -36 -42 -53 0
-28 -36 -45 -53 0
-28 -42 -45 -53 0
-36 -42 -45 -53 0
-3 -10 -14 -23 0
-3 -10 -14 -29 0
-3 -10 -14 -31 0
-3 -10 -14 -37 0
-3 -10 -14 -46 0
-3 -10 -14 -54 0
-3 -10 -23 -29 0
-3 -10 -23 -31 0
-3 -10 -23 -37 0
-3 -10 -23 -46 0
-3 -10 -23 -54 0
-3 -10 -29 -31 0
-3 -10 -29 -37 0
-3 -10 -29 -46 0
-3 -10 -29 -54 0
-3 -10 -31 -37 0
-3 -10 -31 -46 0
-3 -10 -31 -54 0
-3 -10 -37 -46 0
-3 -10 -37 -54 0
-3 -10 -46 -54 0
-3 -14 -23 -29 0
-3 -14 -23 -31 0
-3 -14 -23 -37 0
-3 -14 -23 -46 0
-3 -14 -23 -54 0
-3 -14 -29 -31 0
-3 -14 -29 -37 0
-3 -14 -29 -46 0
-3 -14 -29 -54 0
-3 -14 -31 -37 0
-3 -14 -31 -46 0
-3 -14 -31 -54 0
-3 -14 -37 -46 0
-3 -14 -37 -54 0
-3 -14 -46 -54 0
-3 -23 -29 -31 0
-3 -23 -29 -37 0
-3 -23 -29 -46 0
-3 -23 -29 -54 0
-3 -23 -31 -37 0
-3 -23 -31 -46 0
-3 -23 -31 -54 0
-3 -23 -37 -46 0
-3 -23 -37 -54 0
-3 -23 -46 -54 0
-3 -29 -31 -37 0
-3 -29 -31 -46 0
-3 -29 -31 -54 0
-3 -29 -37 -46 0
-3 -29 -37 -54 0
-3 -29 -46 -54 0
-3 -31 -37 -46 0
-3 -31 -37 -54 0
-3 -31 -46 -54 0
-3 -37 -46 -54 0
-10 -14 -23 -29 0
-10 -14 -23 -31 0
-10 -14 -23 -37 0
-10 -14 -23 -46 0
-10 -14 -23 -54 0
-10 -14 -29 -31 0
-10 -14 -29 -37 0
-10 -14 -29 -46 0
-10 -14 -29 -54 0
-10 -14 -31 -37 0
-10 -14 -31 -46 0
-10 -14 -31 -54 0
-10 -14 -37 -46 0
-10 -14 -37 -54 0
-10 -14 -46 -54 0
-10 -23 -29 -31 0
-10 -23 -29 -37 0
-10 -23 -29 -46 0
-10 -23 -29 -54 0
-10 -23 -31 -37 0
-10 -23 -31 -46 0
-10 -23 -31 -54 0
-10 -23 -37 -46 0
-10 -23 -37 -54 0
-10 -23 -46 -54 0
-10 -29 -31 -37 0
-10 -29 -31 -46 0
-10 -29 -31 -54 0
-10 -29 -37 -46 0
-10 -29 -37 -54 0
-10 -29 -46 -54 0
-10 -31 -37 -46 0
-10 -31 -37 -54 0
-10 -31 -46 -54 0
-10 -37 -46 -54 0
-14 -23 -29 -31 0
-14 -23 -29 -37 0
-14 -23 -29 -46 0
-14 -23 -29 -54 0
-14 -23 -31 -37 0
-14 -23 -31 -46 0
-14 -23 -31 -54 0
-14 -23 -37 -46 0
-14 -23 -37 -54 0
-14 -23 -46 -54 0
-14 -29 -31 -37 0
-14 -29 -31 -46 0
-14 -29 -31 -54 0
-14 -29 -37 -46 0
-14 -29 -37 -54 0
-14 -29 -46 -54 0
-14 -31 -37 -46 0
-14 -31 -37 -54 0
-14 -31 -46 -54 0
-14 -37 -46 -54 0
-23 -29 -31 -37 0
-23 -29 -31 -46 0
-23 -29 -31 -54 0
-23 -29 -37 -46 0
-23 -29 -37 -54 0
-23 -29 -46 -54 0
-23 -31 -37 -46 0
-23 -31 -37 -54 0
-23 -31 -46 -54 0
-23 -37 -46 -54 0
-29 -31 -37 -46 0
-29 -31 -37 -54 0
-29 -31 -46 -54 0
-29 -37 -46 -54 0
-31 -37 -46 -54 0
-4 -11 -15 -24 0
-4 -11 -15 -30 0
-4 -11 -15 -32 0
-4 -11 -15 -38 0
-4 -11 -15 -47 0
-4 -11 -15 -49 0
-4 -11 -24 -30 0
-4 -11 -24 -32 0
-4 -11 -24 -38 0
-4 -11 -24 -47 0
-4 -11 -24 -49 0
-4 -11 -30 -32 0
-4 -11 -30 -38 0
-4 -11 -30 -47 0
-4 -11 -30 -49 0
-4 -11 -32 -38 0
-4 -11 -32 -47 0
-4 -11 -32 -49 0
-4 -11 -38 -47 0
-4 -11 -38 -49 0
-4 -11 -47 -49 0
-4 -15 -24 -30 0
-4 -15 -24 -32 0
-4 -15 -24 -38 0
-4 -15 -24 -47 0
-4 -15 -24 -49 0
-4 -15 -30 -32 0
-4 -15 -30 -38 0
-4 -15 -30 -47 0
-4 -15 -30 -49 0
-4 -15 -32 -38 0
-4 -15 -32 -47 0
-4 -15 -32 -49 0
-4 -15 -38 -47 0
-4 -15 -38 -49 0
-4 -15 -47 -49 0
-4 -24 -30 -32 0
-4 -24 -30 -38 0
-4 -24 -30 -47 0
-4 -24 -30 -49 0
-4 -24 -32 -38 0
-4 -24 -32 -47 0
-4 -24 -32 -49 0
-4 -24 -38 -47 0
-4 -24 -38 -49 0
-4 -24 -47 -49 0
-4 -30 -32 -38 0
-4 -30 -32 -47 0
-4 -30 -32 -49 0
-4 -30 -38 -47 0
-4 -30 -38 -49 0
-4 -30 -47 -49 0
-4 -32 -38 -47 0
-4 -32 -38 -49 0
-4 -32 -47 -49 0
-4 -38 -47 -49 0
-11 -15 -24 -30 0
-11 -15 -24 -32 0
-11 -15 -24 -38 0
-11 -15 -24 -47 0
-11 -15 -24 -49 0
-11 -15 -30 -32 0
-11 -15 -30 -38 0
-11 -15 -30 -47 0
-11 -15 -30 -49 0
-11 -15 -32 -38 0
-11 -15 -32 -47 0
-11 -15 -32 -49 0
-11 -15 -38 -47 0
-11 -15 -38 -49 0
-11 -15 -47 -49 0
-11 -24 -30 -32 0
-11 -24 -30 -38 0
-11 -24 -30 -47 0
-11 -24 -30 -49 0
-11 -24 -32 -38 0
-11 -24 -32 -47 0
-11 -24 -32 -49 0
-11 -24 -38 -47 0
-11 -24 -38 -49 0
-11 -24 -47 -49 0
-11 -30 -32 -38 0
-11 -30 -32 -47 0
-11 -30 -32 -49 0
-11 -30 -38 -47 0
-11 -30 -38 -49 0
-11 -30 -47 -49 0
-11 -32 -38 -47 0
-11 -32 -38 -49 0
-11 -32 -47 -49 0
-11 -38 -47 -49 0
-15 -24 -30 -32 0
-15 -24 -30 -38 0
-15 -24 -30 -47 0
-15 -24 -30 -49 0
-15 -24 -32 -38 0
-15 -24 -32 -47 0
-15 -24 -32 -49 0
-15 -24 -38 -47 0
-15 -24 -38 -49 0
-15 -24 -47 -49 0
-15 -30 -32 -38 0
-15 -30 -32 -47 0
-15 -30 -32 -49 0
-15 -30 -38 -47 0
-15 -30 -38 -49 0
-15 -30 -47 -49 0
-15 -32 -38 -47 0
-15 -32 -38 -49 0
-15 -32 -47 -49 0
-15 -38 -47 -49 0
-24 -30 -32 -38 0
-24 -30 -32 -47 0
-24 -30 -32 -49 0
-24 -30 -38 -47 0
-24 -30 -38 -49 0
-24 -30 -47 -49 0
-24 -32 -38 -47 0
-24 -32 -38 -49 0
-24 -32 -47 -49 0
-24 -38 -47 -49 0
-30 -32 -38 -47 0
-30 -32 -38 -49 0
-30 -32 -47 -49 0
-30 -38 -47 -49 0
-32 -38 -47 -49 0
-5 -12 -16 -19 0
-5 -12 -16 -25 0
-5 -12 -16 -33 0
-5 -12 -16 -39 0
-5 -12 -16 -48 0
-5 -12 -16 -50 0
-5 -12 -19 -25 0
-5 -12 -19 -33 0
-5 -12 -19 -39 0
-5 -12 -19 -48 0
-5 -12 -19 -50 0
-5 -12 -25 -33 0
-5 -12 -25 -39 0
-5 -12 -25 -48 0
-5 -12 -25 -50 0
-5 -12 -33 -39 0
-5 -12 -33 -48 0
-5 -12 -33 -50 0
-5 -12 -39 -48 0
-5 -12 -39 -50 0
-5 -12 -48 -50 0
-5 -16 -19 -25 0
-5 -16 -19 -33 0
-5 -16 -19 -39 0
-5 -16 -19 -48 0
-5 -16 -19 -50 0
-5 -16 -25 -33 0
-5 -16 -25 -39 0
-5 -16 -25 -48 0
-5 -16 -25 -50 0
-5 -16 -33 -39 0
-5 -16 -33 -48 0
-5 -16 -33 -50 0
-5 -16 -39 -48 0
-5 -16 -39 -50 0
-5 -16 -48 -50 0
-5 -19 -25 -33 0
-5 -19 -25 -39 0
-5 -19 -25 -48 0
-5 -19 -25 -50 0
-5 -19 -33 -39 0
-5 -19 -33 -48 0
-5 -19 -33 -50 0
-5 -19 -39 -48 0
-5 -19 -39 -50 0
-5 -19 -48 -50 0
-5 -25 -33 -39 0
-5 -25 -33 -48 0
-5 -25 -33 -50 0
-5 -25 -39 -48 0
-5 -25 -39 -50 0
-5 -25 -48 -50 0
-5 -33 -39 -48 0
-5 -33 -39 -50 0
-5 -33 -48 -50 0
-5 -39 -48 -50 0
-12 -16 -19 -25 0
-12 -16 -19 -33 0
-12 -16 -19 -39 0
-12 -16 -19 -48 0
-12 -16 -19 -50 0
-12 -16 -25 -33 0
-12 -16 -25 -39 0
-12 -16 -25 -48 0
-12 -16 -25 -50 0
-12 -16 -33 -39 0
-12 -16 -33 -48 0
-12 -16 -33 -50 0
-12 -16 -39 -48 0
-12 -16 -39 -50 0
-12 -16 -48 -50 0
-12 -19 -25 -33 0
-12 -19 -25 -39 0
-12 -19 -25 -48 0
-12 -19 -25 -50 0
-12 -19 -33 -39 0
-12 -19 -33 -48 0
-12 -19 -33 -50 0
-12 -19 -39 -48 0
-12 -19 -39 -50 0
-12 -19 -48 -50 0
-12 -25 -33 -39 0
-12 -25 -33 -48 0
-12 -25 -33 -50 0
-12 -25 -39 -48 0
-12 -25 -39 -50 0
-12 -25 -48 -50 0
-12 -33 -39 -48 0
-12 -33 -39 -50 0
-12 -33 -48 -50 0
-12 -39 -48 -50 0
-16 -19 -25 -33 0
-16 -19 -25 -39 0
-16 -19 -25 -48 0
-16 -19 -25 -50 0
-16 -19 -33 -39 0
-16 -19 -33 -48 0
-16 -19 -33 -50 0
-16 -19 -39 -48 0
-16 -19 -39 -50 0
-16 -19 -48 -50 0
-16 -25 -33 -39 0
-16 -25 -33 -48 0
-16 -25 -33 -50 0
-16 -25 -39 -48 0
-16 -25 -39 -50 0
-16 -25 -48 -50 0
-16 -33 -39 -48 0
-16 -33 -39 -50 0
-16 -33 -48 -50 0
-16 -39 -48 -50 0
-19 -25 -33 -39 0
-19 -25 -33 -48 0
-19 -25 -33 -50 0
-19 -25 -39 -48 0
-19 -25 -39 -50 0
-19 -25 -48 -50 0
-19 -33 -39 -48 0
-19 -33 -39 -50 0
-19 -33 -48 -50 0
-19 -39 -48 -50 0
-25 -33 -39 -48 0
-25 -33 -39 -50 0
-25 -33 -48 -50 0
-25 -39 -48 -50 0
-33 -39 -48 -50 0
-6 -7 -17 -20 0
-6 -7 -17 -26 0
-6 -7 -17 -34 0
-6 -7 -17 -40 0
-6 -7 -17 -43 0
-6 -7 -17 -51 0
-6 -7 -20 -26 0
-6 -7 -20 -34 0
-6 -7 -20 -40 0
-6 -7 -20 -43 0
-6 -7 -20 -51 0
-6 -7 -26 -34 0
-6 -7 -26 -40 0
-6 -7 -26 -43 0
-6 -7 -26 -51 0
-6 -7 -34 -40 0
-6 -7 -34 -43 0
-6 -7 -34 -51 0
-6 -7 -40 -43 0
-6 -7 -40 -51 0
-6 -7 -43 -51 0
-6 -17 -20 -26 0
-6 -17 -20 -34 0
-6 -17 -20 -40 0
-6 -17 -20 -43 0
-6 -17 -20 -51 0
-6 -17 -26 -34 0
-6 -17 -26 -40 0
-6 -17 -26 -43 0
-6 -17 -26 -51 0
-6 -17 -34 -40 0
-6 -17 -34 -43 0
-6 -17 -34 -51 0
-6 -17 -40 -43 0
-6 -17 -40 -51 0
-6 -17 -43 -51 0
-6 -20 -26 -34 0
-6 -20 -26 -40 0
-6 -20 -26 -43 0
-6 -20 -26 -51 0
-6 -20 -34 -40 0
-6 -20 -34 -43 0
-6 -20 -34 -51 0
-6 -20 -40 -43 0
-6 -20 -40 -51 0
-6 -20 -43 -51 0
-6 -26 -34 -40 0
-6 -26 -34 -43 0
-6 -26 -34 -51 0
-6 -26 -40 -43 0
-6 -26 -40 -51 0
-6 -26 -43 -51 0
-6 -34 -40 -43 0
-6 -34 -40 -51 0
-6 -34 -43 -51 0
-6 -40 -43 -51 0
-7 -17 -20 -26 0
-7 -17 -20 -34 0
-7 -17 -20 -40 0
-7 -17 -20 -43 0
-7 -17 -20 -51 0
-7 -17 -26 -34 0
-7 -17 -26 -40 0
-7 -17 -26 -43 0
-7 -17 -26 -51 0
-7 -17 -34 -40 0
-7 -17 -34 -43 0
-7 -17 -34 -51 0
-7 -17 -40 -43 0
-7 -17 -40 -51 0
-7 -17 -43 -51 0
-7 -20 -26 -34 0
-7 -20 -26 -40 0
-7 -20 -26 -43 0
-7 -20 -26 -51 0
-7 -20 -34 -40 0
-7 -20 -34 -43 0
-7 -20 -34 -51 0
-7 -20 -40 -43 0
-7 -20 -40 -51 0
-7 -20 -43 -51 0
-7 -26 -34 -40 0
-7 -26 -34 -43 0
-7 -26 -34 -51 0
-7 -26 -40 -43 0
-7 -26 -40 -51 0
-7 -26 -43 -51 0
-7 -34 -40 -43 0
-7 -34 -40 -51 0
-7 -34 -43 -51 0
-7 -40 -43 -51 0
-17 -20 -26 -34 0
-17 -20 -26 -40 0
-17 -20 -26 -43 0
-17 -20 -26 -51 0
-17 -20 -34 -40 0
-17 -20 -34 -43 0
-17 -20 -34 -51 0
-17 -20 -40 -43 0
-17 -20 -40 -51 0
-17 -20 -43 -51 0
-17 -26 -34 -40 0
-17 -26 -34 -43 0
-17 -26 -34 -51 0
-17 -26 -40 -43 0
-17 -26 -40 -51 0
-17 -26 -43 -51 0
-17 -34 -40 -43 0
-17 -34 -40 -51 0
-17 -34 -43 -51 0
-17 -40 -43 -51 0
-20 -26 -34 -40 0
-20 -26 -34 -43 0
-20 -26 -34 -51 0
-20 -26 -40 -43 0
-20 -26 -40 -51 0
-20 -26 -43 -51 0
-20 -34 -40 -43 0
-20 -34 -40 -51 0
-20 -34 -43 -51 0
-20 -40 -43 -51 0
-26 -34 -40 -43 0
-26 -34 -40 -51 0
-26 -34 -43 -51 0
-26 -40 -43 -51 0
-34 -40 -43 -51 0
-1 -11 -17 -23 0
-1 -11 -17 -29 0
-1 -11 -17 -33 0
-1 -11 -17 -42 0
-1 -11 -17 -48 0
-1 -11 -17 -49 0
-1 -11 -23 -29 0
-1 -11 -23 -33 0
-1 -11 -23 -42 0
-1 -11 -23 -48 0
-1 -11 -23 -49 0
-1 -11 -29 -33 0
-1 -11 -29 -42 0
-1 -11 -29 -48 0
-1 -11 -29 -49 0
-1 -11 -33 -42 0
-1 -11 -33 -48 0
-1 -11 -33 -49 0
-1 -11 -42 -48 0
-1 -11 -42 -49 0
-1 -11 -48 -49 0
-1 -17 -23 -29 0
-1 -17 -23 -33 0
-1 -17 -23 -42 0
-1 -17 -23 -48 0
-1 -17 -23 -49 0
-1 -17 -29 -33 0
-1 -17 -29 -42 0
-1 -17 -29 -48 0
-1 -17 -29 -49 0
-1 -17 -33 -42 0
-1 -17 -33 -48 0
-1 -17 -33 -49 0
-1 -17 -42 -48 0
-1 -17 -42 -49 0
-1 -17 -48 -49 0
-1 -23 -29 -33 0
-1 -23 -29 -42 0
-1 -23 -29 -48 0
-1 -23 -29 -49 0
-1 -23 -33 -42 0
-1 -23 -33 -48 0
-1 -23 -33 -49 0
-1 -23 -42 -48 0
-1 -23 -42 -49 0
-1 -23 -48 -49 0
-1 -29 -33 -42 0
-1 -29 -33 -48 0
-1 -29 -33 -49 0
-1 -29 -42 -48 0
-1 -29 -42 -49 0
-1 -29 -48 -49 0
-1 -33 -42 -48 0
-1 -33 -42 -49 0
-1 -33 -48 -49 0
-1 -42 -48 -49 0
-11 -17 -23 -29 0
-11 -17 -23 -33 0
-11 -17 -23 -42 0
-11 -17 -23 -48 0
-11 -17 -23 -49 0
-11 -17 -29 -33 0
-11 -17 -29 -42 0
-11 -17 -29 -48 0
-11 -17 -29 -49 0
-11 -17 -33 -42 0
-11 -17 -33 -48 0
-11 -17 -33 -49 0
-11 -17 -42 -48 0
-11 -17 -42 -49 0
-11 -17 -48 -49 0
-11 -23 -29 -33 0
-11 -23 -29 -42 0
-11 -23 -29 -48 0
-11 -23 -29 -49 0
-11 -23 -33 -42 0
-11 -23 -33 -48 0
-11 -23 -33 -49 0
-11 -23 -42 -48 0
-11 -23 -42 -49 0
-11 -23 -48 -49 0
-11 -29 -33 -42 0
-11 -29 -33 -48 0
-11 -29 -33 -49 0
-11 -29 -42 -48 0
-11 -29 -42 -49 0
-11 -29 -48 -49 0
-11 -33 -42 -48 0
-11 -33 -42 -49 0
-11 -33 -48 -49 0
-11 -42 -48 -49 0
-17 -23 -29 -33 0
-17 -23 -29 -42 0
-17 -23 -29 -48 0
-17 -23 -29 -49 0
-17 -23 -33 -42 0
-17 -23 -33 -48 0
-17 -23 -33 -49 0
-17 -23 -42 -48 0
-17 -23 -42 -49 0
-17 -23 -48 -49 0
-17 -29 -33 -42 0
-17 -29 -33 -48 0
-17 -29 -33 -49 0
-17 -29 -42 -48 0
-17 -29 -42 -49 0
-17 -29 -48 -49 0
-17 -33 -42 -48 0
-17 -33 -42 -49 0
-17 -33 -48 -49 0
-17 -42 -48 -49 0
-23 -29 -33 -42 0
-23 -29 -33 -48 0
-23 -29 -33 -49 0
-23 -29 -42 -48 0
-23 -29 -42 -49 0
-23 -29 -48 -49 0
-23 -33 -42 -48 0
-23 -33 -42 -49 0
-23 -33 -48 -49 0
-23 -42 -48 -49 0
-29 -33 -42 -48 0
-29 -33 -42 -49 0
-29 -33 -48 -49 0
-29 -42 -48 -49 0
-33 -42 -48 -49 0
-2 -12 -18 -24 0
-2 -12 -18 -30 0
-2 -12 -18 -34 0
-2 -12 -18 -37 0
-2 -12 -18 -43 0
-2 -12 -18 -50 0
-2 -12 -24 -30 0
-2 -12 -24 -34 0
-2 -12 -24 -37 0
-2 -12 -24 -43 0
-2 -12 -24 -50 0
-2 -12 -30 -34 0
-2 -12 -30 -37 0
-2 -12 -30 -43 0
-2 -12 -30 -50 0
-2 -12 -34 -37 0
-2 -12 -34 -43 0
-2 -12 -34 -50 0
-2 -12 -37 -43 0
-2 -12 -37 -50 0
-2 -12 -43 -50 0
-2 -18 -24 -30 0
-2 -18 -24 -34 0
-2 -18 -24 -37 0
-2 -18 -24 -43 0
-2 -18 -24 -50 0
-2 -18 -30 -34 0
-2 -18 -30 -37 0
-2 -18 -30 -43 0
-2 -18 -30 -50 0
-2 -18 -34 -37 0
-2 -18 -34 -43 0
-2 -18 -34 -50 0
-2 -18 -37 -43 0
-2 -18 -37 -50 0
-2 -18 -43 -50 0
-2 -24 -30 -34 0
-2 -24 -30 -37 0
-2 -24 -30 -43 0
-2 -24 -30 -50 0
-2 -24 -34 -37 0
-2 -24 -34 -43 0
-2 -24 -34 -50 0
-2 -24 -37 -43 0
-2 -24 -37 -50 0
-2 -24 -43 -50 0
-2 -30 -34 -37 0
-2 -30 -34 -43 0
-2 -30 -34 -50 0
-2 -30 -37 -43 0
-2 -30 -37 -50 0
-2 -30 -43 -50 0
-2 -34 -37 -43 0
-2 -34 -37 -50 0
-2 -34 -43 -50 0
-2 -37 -43 -50 0
-12 -18 -24 -30 0
-12 -18 -24 -34 0
-12 -18 -24 -37 0
-12 -18 -24 -43 0
-12 -18 -24 -50 0
-12 -18 -30 -34 0
-12 -18 -30 -37 0
-12 -18 -30 -43 0
-12 -18 -30 -50 0
-12 -18 -34 -37 0
-12 -18 -34 -43 0
-12 -18 -34 -50 0
-12 -18 -37 -43 0
-12 -18 -37 -50 0
-12 -18 -43 -50 0
-12 -24 -30 -34 0
-12 -24 -30 -37 0
-12 -24 -30 -43 0
-12 -24 -30 -50 0
-12 -24 -34 -37 0
-12 -24 -34 -43 0
-12 -24 -34 -50 0
-12 -24 -37 -43 0
-12 -24 -37 -50 0
-12 -24 -43 -50 0
-12 -30 -34 -37 0
-12 -30 -34 -43 0
-12 -30 -34 -50 0
-12 -30 -37 -43 0
-12 -30 -37 -50 0
-12 -30 -43 -50 0
-12 -34 -37 -43 0
-12 -34 -37 -50 0
-12 -34 -43 -50 0
-12 -37 -43 -50 0
-18 -24 -30 -34 0
-18 -24 -30 -37 0
-18 -24 -30 -43 0
-18 -24 -30 -50 0
-18 -24 -34 -37 0
-18 -24 -34 -43 0
-18 -24 -34 -50 0
-18 -24 -37 -43 0
-18 -24 -37 -50 0
-18 -24 -43 -50 0
-18 -30 -34 -37 0
-18 -30 -34 -43 0
-18 -30 -34 -50 0
-18 -30 -37 -43 0
-18 -30 -37 -50 0
-18 -30 -43 -50 0
-18 -34 -37 -43 0
-18 -34 -37 -50 0
-18 -34 -43 -50 0
-18 -37 -43 -50 0
-24 -30 -34 -37 0
-24 -30 -34 -43 0
-24 -30 -34 -50 0
-24 -30 -37 -43 0
-24 -30 -37 -50 0
-24 -30 -43 -50 0
-24 -34 -37 -43 0
-24 -34 -37 -50 0
-24 -34 -43 -50 0
-24 -37 -43 -50 0
-30 -34 -37 -43 0
-30 -34 -37 -50 0
-30 -34 -43 -50 0
-30 -37 -43 -50 0
-34 -37 -43 -50 0
-3 -7 -13 -19 0
-3 -7 -13 -25 0
-3 -7 -13 -35 0
-3 -7 -13 -38 0
-3 -7 -13 -44 0
-3 -7 -13 -51 0
-3 -7 -19 -25 0
-3 -7 -19 -35 0
-3 -7 -19 -38 0
-3 -7 -19 -44 0
-3 -7 -19 -51 0
-3 -7 -25 -35 0
-3 -7 -25 -38 0
-3 -7 -25 -44 0
-3 -7 -25 -51 0
-3 -7 -35 -38 0
-3 -7 -35 -44 0
-3 -7 -35 -51 0
-3 -7 -38 -44 0
-3 -7 -38 -51 0
-3 -7 -44 -51 0
-3 -13 -19 -25 0
-3 -13 -19 -35 0
-3 -13 -19 -38 0
-3 -13 -19 -44 0
-3 -13 -19 -51 0
-3 -13 -25 -35 0
-3 -13 -25 -38 0
-3 -13 -25 -44 0
-3 -13 -25 -51 0
-3 -13 -35 -38 0
-3 -13 -35 -44 0
-3 -13 -35 -51 0
-3 -13 -38 -44 0
-3 -13 -38 -51 0
-3 -13 -44 -51 0
-3 -19 -25 -35 0
-3 -19 -25 -38 0
-3 -19 -25 -44 0
-3 -19 -25 -51 0
-3 -19 -35 -38 0
-3 -19 -35 -44 0
-3 -19 -35 -51 0
-3 -19 -38 -44 0
-3 -19 -38 -51 0
-3 -19 -44 -51 0
-3 -25 -35 -38 0
-3 -25 -35 -44 0
-3 -25 -35 -51 0
-3 -25 -38 -44 0
-3 -25 -38 -51 0
-3 -25 -44 -51 0
-3 -35 -38 -44 0
-3 -35 -38 -51 0
-3 -35 -44 -51 0
-3 -38 -44 -51 0
-7 -13 -19 -25 0
-7 -13 -19 -35 0
-7 -13 -19 -38 0
-7 -13 -19 -44 0
-7 -13 -19 -51 0
-7 -13 -25 -35 0
-7 -13 -25 -38 0
-7 -13 -25 -44 0
-7 -13 -25 -51 0
-7 -13 -35 -38 0
-7 -13 -35 -44 0
-7 -13 -35 -51 0
-7 -13 -38 -44 0
-7 -13 -38 -51 0
-7 -13 -44 -51 0
-7 -19 -25 -35 0
-7 -19 -25 -38 0
-7 -19 -25 -44 0
-7 -19 -25 -51 0
-7 -19 -35 -38 0
-7 -19 -35 -44 0
-7 -19 -35 -51 0
-7 -19 -38 -44 0
-7 -19 -38 -51 0
-7 -19 -44 -51 0
-7 -25 -35 -38 0
-7 -25 -35 -44 0
-7 -25 -35 -51 0
-7 -25 -38 -44 0
-7 -25 -38 -51 0
-7 -25 -44 -51 0
-7 -35 -38 -44 0
-7 -35 -38 -51 0
-7 -35 -44 -51 0
-7 -38 -44 -51 0
-13 -19 -25 -35 0
-13 -19 -25 -38 0
-13 -19 -25 -44 0
-13 -19 -25 -51 0
-13 -19 -35 -38 0
-13 -19 -35 -44 0
-13 -19 -35 -51 0
-13 -19 -38 -44 0
-13 -19 -38 -51 0
-13 -19 -44 -51 0
-13 -25 -35 -38 0
-13 -25 -35 -44 0
-13 -25 -35 -51 0
-13 -25 -38 -44 0
-13 -25 -38 -51 0
-13 -25 -44 -51 0
-13 -35 -38 -44 0
-13 -35 -38 -51 0
-13 -35 -44 -51 0
-13 -38 -44 -51 0
-19 -25 -35 -38 0
-19 -25 -35 -44 0
-19 -25 -35 -51 0
-19 -25 -38 -44 0
-19 -25 -38 -51 0
-19 -25 -44 -51 0
-19 -35 -38 -44 0
-19 -35 -38 -51 0
-19 -35 -44 -51 0
-19 -38 -44 -51 0
-25 -35 -38 -44 0
-25 -35 -38 -51 0
-25 -35 -44 -51 0
-25 -38 -44 -51 0
-35 -38 -44 -51 0
-4 -8 -14 -20 0
-4 -8 -14 -26 0
-4 -8 -14 -36 0
-4 -8 -14 -39 0
-4 -8 -14 -45 0
-4 -8 -14 -52 0
-4 -8 -20 -26 0
-4 -8 -20 -36 0
-4 -8 -20 -39 0
-4 -8 -20 -45 0
-4 -8 -20 -52 0
-4 -8 -26 -36 0
-4 -8 -26 -39 0
-4 -8 -26 -45 0
-4 -8 -26 -52 0
-4 -8 -36 -39 0
-4 -8 -36 -45 0
-4 -8 -36 -52 0
-4 -8 -39 -45 0
-4 -8 -39 -52 0
-4 -8 -45 -52 0
-4 -14 -20 -26 0
-4 -14 -20 -36 0
-4 -14 -20 -39 0
-4 -14 -20 -45 0
-4 -14 -20 -52 0
-4 -14 -26 -36 0
-4 -14 -26 -39 0
-4 -14 -26 -45 0
-4 -14 -26 -52 0
-4 -14 -36 -39 0
-4 -14 -36 -45 0
-4 -14 -36 -52 0
-4 -14 -39 -45 0
-4 -14 -39 -52 0
-4 -14 -45 -52 0
-4 -20 -26 -36 0
-4 -20 -26 -39 0
-4 -20 -26 -45 0
-4 -20 -26 -52 0
-4 -20 -36 -39 0
-4 -20 -36 -45 0
-4 -20 -36 -52 0
-4 -20 -39 -45 0
-4 -20 -39 -52 0
-4 -20 -45 -52 0
-4 -26 -36 -39 0
-4 -26 -36 -45 0
-4 -26 -36 -52 0
-4 -26 -39 -45 0
-4 -26 -39 -52 0
-4 -26 -45 -52 0
-4 -36 -39 -45 0
-4 -36 -39 -52 0
-4 -36 -45 -52 0
-4 -39 -45 -52 0
-8 -14 -20 -26 0
-8 -14 -20 -36 0
-8 -14 -20 -39 0
-8 -14 -20 -45 0
-8 -14 -20 -52 0
-8 -14 -26 -36 0
-8 -14 -26 -39 0
-8 -14 -26 -45 0
-8 -14 -26 -52 0
-8 -14 -36 -39 0
-8 -14 -36 -45 0
-8 -14 -36 -52 0
-8 -14 -39 -45 0
-8 -14 -39 -52 0
-8 -14 -45 -52 0
-8 -20 -26 -36 0
-8 -20 -26 -39 0
-8 -20 -26 -45 0
-8 -20 -26 -52 0
-8 -20 -36 -39 0
-8 -20 -36 -45 0
-8 -20 -36 -52 0
-8 -20 -39 -45 0
-8 -20 -39 -52 0
-8 -20 -45 -52 0
-8 -26 -36 -39 0
-8 -26 -36 -45 0
-8 -26 -36 -52 0
-8 -26 -39 -45 0
-8 -26 -39 -52 0
-8 -26 -45 -52 0
-8 -36 -39 -45 0
-8 -36 -39 -52 0
-8 -36 -45 -52 0
-8 -39 -45 -52 0
-14 -20 -26 -36 0
-14 -20 -26 -39 0
-14 -20 -26 -45 0
-14 -20 -26 -52 0
-14 -20 -36 -39 0
-14 -20 -36 -45 0
-14 -20 -36 -52 0
-14 -20 -39 -45 0
-14 -20 -39 -52 0
-14 -20 -45 -52 0
-14 -26 -36 -39 0
-14 -26 -36 -45 0
-14 -26 -36 -52 0
-14 -26 -39 -45 0
-14 -26 -39 -52 0
-14 -26 -45 -52 0
-14 -36 -39 -45 0
-14 -36 -39 -52 0
-14 -36 -45 -52 0
-14 -39 -45 -52 0
-20 -26 -36 -39 0
-20 -26 -36 -45 0
-20 -26 -36 -52 0
-20 -26 -39 -45 0
-20 -26 -39 -52 0
-20 -26 -45 -52 0
-20 -36 -39 -45 0
-20 -36 -39 -52 0
-20 -36 -45 -52 0
-20 -39 -45 -52 0
-26 -36 -39 -45 0
-26 -36 -39 -52 0
-26 -36 -45 -52 0
-26 -39 -45 -52 0
-36 -39 -45 -52 0
-5 -9 -15 -21 0
-5 -9 -15 -27 0
-5 -9 -15 -33 0
-5 -9 -15 -40 0
-5 -9 -15 -46 0
-5 -9 -15 -53 0
-5 -9 -21 -27 0
-5 -9 -21 -33 0
-5 -9 -21 -40 0
-5 -9 -21 -46 0
-5 -9 -21 -53 0
-5 -9 -27 -33 0
-5 -9 -27 -40 0
-5 -9 -27 -46 0
-5 -9 -27 -53 0
-5 -9 -33 -40 0
-5 -9 -33 -46 0
-5 -9 -33 -53 0
-5 -9 -40 -46 0
-5 -9 -40 -53 0
-5 -9 -46 -53 0
-5 -15 -21 -27 0
-5 -15 -21 -33 0
-5 -15 -21 -40 0
-5 -15 -21 -46 0
-5 -15 -21 -53 0
-5 -15 -27 -33 0
-5 -15 -27 -40 0
-5 -15 -27 -46 0
-5 -15 -27 -53 0
-5 -15 -33 -40 0
-5 -15 -33 -46 0
-5 -15 -33 -53 0
-5 -15 -40 -46 0
-5 -15 -40 -53 0
-5 -15 -46 -53 0
-5 -21 -27 -33 0
-5 -21 -27 -40 0
-5 -21 -27 -46 0
-5 -21 -27 -53 0
-5 -21 -33 -40 0
-5 -21 -33 -46 0
-5 -21 -33 -53 0
-5 -21 -40 -46 0
-5 -21 -40 -53 0
-5 -21 -46 -53 0
-5 -27 -33 -40 0
-5 -27 -33 -46 0
-5 -27 -33 -53 0
-5 -27 -40 -46 0
-5 -27 -40 -53 0
-5 -27 -46 -53 0
-5 -33 -40 -46 0
-5 -33 -40 -53 0
-5 -33 -46 -53 0
-5 -40 -46 -53 0
-9 -15 -21 -27 0
-9 -15 -21 -33 0
-9 -15 -21 -40 0
-9 -15 -21 -46 0
-9 -15 -21 -53 0
-9 -15 -27 -33 0
-9 -15 -27 -40 0
-9 -15 -27 -46 0
-9 -15 -27 -53 0
-9 -15 -33 -40 0
-9 -15 -33 -46 0
-9 -15 -33 -53 0
-9 -15 -40 -46 0
-9 -15 -40 -53 0
-9 -15 -46 -53 0
-9 -21 -27 -33 0
-9 -21 -27 -40 0
-9 -21 -27 -46 0
-9 -21 -27 -53 0
-9 -21 -33 -40 0
-9 -21 -33 -46 0
-9 -21 -33 -53 0
-9 -21 -40 -46 0
-9 -21 -40 -53 0
-9 -21 -46 -53 0
-9 -27 -33 -40 0
-9 -27 -33 -46 0
-9 -27 -33 -53 0
-9 -27 -40 -46 0
-9 -27 -40 -53 0
-9 -27 -46 -53 0
-9 -33 -40 -46 0
-9 -33 -40 -53 0
-9 -33 -46 -53 0
-9 -40 -46 -53 0
-15 -21 -27 -33 0
-15 -21 -27 -40 0
-15 -21 -27 -46 0
-15 -21 -27 -53 0
-15 -21 -33 -40 0
-15 -21 -33 -46 0
-15 -21 -33 -53 0
-15 -21 -40 -46 0
-15 -21 -40 -53 0
-15 -21 -46 -53 0
-15 -27 -33 -40 0
-15 -27 -33 -46 0
-15 -27 -33 -53 0
-15 -27 -40 -46 0
-15 -27 -40 -53 0
-15 -27 -46 -53 0
-15 -33 -40 -46 0
-15 -33 -40 -53 0
-15 -33 -46 -53 0
-15 -40 -46 -53 0
-21 -27 -33 -40 0
-21 -27 -33 -46 0
-21 -27 -33 -53 0
-21 -27 -40 -46 0
-21 -27 -40 -53 0
-21 -27 -46 -53 0
-21 -33 -40 -46 0
-21 -33 -40 -53 0
-21 -33 -46 -53 0
-21 -40 -46 -53 0
-27 -33 -40 -46 0
-27 -33 -40 -53 0
-27 -33 -46 -53 0
-27 -40 -46 -53 0
-33 -40 -46 -53 0
-6 -10 -16 -22 0
-6 -10 -16 -28 0
-6 -10 -16 -32 0
-6 -10 -16 -41 0
-6 -10 -16 -47 0
-6 -10 -16 -54 0
-6 -10 -22 -28 0
-6 -10 -22 -32 0
-6 -10 -22 -41 0
-6 -10 -22 -47 0
-6 -10 -22 -54 0
-6 -10 -28 -32 0
-6 -10 -28 -41 0
-6 -10 -28 -47 0
-6 -10 -28 -54 0
-6 -10 -32 -41 0
-6 -10 -32 -47 0
-6 -10 -32 -54 0
-6 -10 -41 -47 0
-6 -10 -41 -54 0
-6 -10 -47 -54 0
-6 -16 -22 -28 0
-6 -16 -22 -32 0
-6 -16 -22 -41 0
-6 -16 -22 -47 0
-6 -16 -22 -54 0
-6 -16 -28 -32 0
-6 -16 -28 -41 0
-6 -16 -28 -47 0
-6 -16 -28 -54 0
-6 -16 -32 -41 0
-6 -16 -32 -47 0
-6 -16 -32 -54 0
-6 -16 -41 -47 0
-6 -16 -41 -54 0
-6 -16 -47 -54 0
-6 -22 -28 -32 0
-6 -22 -28 -41 0
-6 -22 -28 -47 0
-6 -22 -28 -54 0
-6 -22 -32 -41 0
-6 -22 -32 -47 0
-6 -22 -32 -54 0
-6 -22 -41 -47 0
-6 -22 -41 -54 0
-6 -22 -47 -54 0
-6 -28 -32 -41 0
-6 -28 -32 -47 0
-6 -28 -32 -54 0
-6 -28 -41 -47 0
-6 -28 -41 -54 0
-6 -28 -47 -54 0
-6 -32 -41 -47 0
-6 -32 -41 -54 0
-6 -32 -47 -54 0
-6 -41 -47 -54 0
-10 -16 -22 -28 0
-10 -16 -22 -32 0
-10 -16 -22 -41 0
-10 -16 -22 -47 0
-10 -16 -22 -54 0
-10 -16 -28 -32 0
-10 -16 -28 -41 0
-10 -16 -28 -47 0
-10 -16 -28 -54 0
-10 -16 -32 -41 0
-10 -16 -32 -47 0
-10 -16 -32 -54 0
-10 -16 -41 -47 0
-10 -16 -41 -54 0
-10 -16 -47 -54 0
-10 -22 -28 -32 0
-10 -22 -28 -41 0
-10 -22 -28 -47 0
-10 -22 -28 -54 0
-10 -22 -32 -41 0
-10 -22 -32 -47 0
-10 -22 -32 -54 0
-10 -22 -41 -47 0
-10 -22 -41 -54 0
-10 -22 -47 -54 0
-10 -28 -32 -41 0
-10 -28 -32 -47 0
-10 -28 -32 -54 0
-10 -28 -41 -47 0
-10 -28 -41 -54 0
-10 -28 -47 -54 0
-10 -32 -41 -47 0
-10 -32 -41 -54 0
-10 -32 -47 -54 0
-10 -41 -47 -54 0
-16 -22 -28 -32 0
-16 -22 -28 -41 0
-16 -22 -28 -47 0
-16 -22 -28 -54 0
-16 -22 -32 -41 0
-16 -22 -32 -47 0
-16 -22 -32 -54 0
-16 -22 -41 -47 0
-16 -22 -41 -54 0
-16 -22 -47 -54 0
-16 -28 -32 -41 0
-16 -28 -32 -47 0
-16 -28 -32 -54 0
-16 -28 -41 -47 0
-16 -28 -41 -54 0
-16 -28 -47 -54 0
-16 -32 -41 -47 0
-16 -32 -41 -54 0
-16 -32 -47 -54 0
-16 -41 -47 -54 0
-22 -28 -32 -41 0
-22 -28 -32 -47 0
-22 -28 -32 -54 0
-22 -28 -41 -47 0
-22 -28 -41 -54 0
-22 -28 -47 -54 0
-22 -32 -41 -47 0
-22 -32 -41 -54 0
-22 -32 -47 -54 0
-22 -41 -47 -54 0
-28 -32 -41 -47 0
-28 -32 -41 -54 0
-28 -32 -47 -54 0
-28 -41 -47 -54 0
-32 -41 -47 -54 0
-1 -10 -15 -22 0
-1 -10 -15 -27 0
-1 -10 -15 -33 0
-1 -10 -15 -38 0
-1 -10 -15 -45 0
-1 -10 -15 -50 0
-1 -10 -22 -27 0
-1 -10 -22 -33 0
-1 -10 -22 -38 0
-1 -10 -22 -45 0
-1 -10 -22 -50 0
-1 -10 -27 -33 0
-1 -10 -27 -38 0
-1 -10 -27 -45 0
-1 -10 -27 -50 0
-1 -10 -33 -38 0
-1 -10 -33 -45 0
-1 -10 -33 -50 0
-1 -10 -38 -45 0
-1 -10 -38 -50 0
-1 -10 -45 -50 0
-1 -15 -22 -27 0
-1 -15 -22 -33 0
-1 -15 -22 -38 0
-1 -15 -22 -45 0
-1 -15 -22 -50 0
-1 -15 -27 -33 0
-1 -15 -27 -38 0
-1 -15 -27 -45 0
-1 -15 -27 -50 0
-1 -15 -33 -38 0
-1 -15 -33 -45 0
-1 -15 -33 -50 0
-1 -15 -38 -45 0
-1 -15 -38 -50 0
-1 -15 -45 -50 0
-1 -22 -27 -33 0
-1 -22 -27 -38 0
-1 -22 -27 -45 0
-1 -22 -27 -50 0
-1 -22 -33 -38 0
-1 -22 -33 -45 0
-1 -22 -33 -50 0
-1 -22 -38 -45 0
-1 -22 -38 -50 0
-1 -22 -45 -50 0
-1 -27 -33 -38 0
-1 -27 -33 -45 0
-1 -27 -33 -50 0
-1 -27 -38 -45 0
-1 -27 -38 -50 0
-1 -27 -45 -50 0
-1 -33 -38 -45 0
-1 -33 -38 -50 0
-1 -33 -45 -50 0
-1 -38 -45 -50 0
-10 -15 -22 -27 0
-10 -15 -22 -33 0
-10 -15 -22 -38 0
-10 -15 -22 -45 0
-10 -15 -22 -50 0
-10 -15 -27 -33 0
-10 -15 -27 -38 0
-10 -15 -27 -45 0
-10 -15 -27 -50 0
-10 -15 -33 -38 0
-10 -15 -33 -45 0
-10 -15 -33 -50 0
-10 -15 -38 -45 0
-10 -15 -38 -50 0
-10 -15 -45 -50 0
-10 -22 -27 -33 0
-10 -22 -27 -38 0
-10 -22 -27 -45 0
-10 -22 -27 -50 0
-10 -22 -33 -38 0
-10 -22 -33 -45 0
-10 -22 -33 -50 0
-10 -22 -38 -45 0
-10 -22 -38 -50 0
-10 -22 -45 -50 0
-10 -27 -33 -38 0
-10 -27 -33 -45 0
-10 -27 -33 -50 0
-10 -27 -38 -45 0
-10 -27 -38 -50 0
-10 -27 -45 -50 0
-10 -33 -38 -45 0
-10 -33 -38 -50 0
-10 -33 -45 -50 0
-10 -38 -45 -50 0
-15 -22 -27 -33 0
-15 -22 -27 -38 0
-15 -22 -27 -45 0
-15 -22 -27 -50 0
-15 -22 -33 -38 0
-15 -22 -33 -45 0
-15 -22 -33 -50 0
-15 -22 -38 -45 0
-15 -22 -38 -50 0
-15 -22 -45 -50 0
-15 -27 -33 -38 0
-15 -27 -33 -45 0
-15 -27 -33 -50 0
-15 -27 -38 -45 0
-15 -27 -38 -50 0
-15 -27 -45 -50 0
-15 -33 -38 -45 0
-15 -33 -38 -50 0
-15 -33 -45 -50 0
-15 -38 -45 -50 0
-22 -27 -33 -38 0
-22 -27 -33 -45 0
-22 -27 -33 -50 0
-22 -27 -38 -45 0
-22 -27 -38 -50 0
-22 -27 -45 -50 0
-22 -33 -38 -45 0
-22 -33 -38 -50 0
-22 -33 -45 -50 0
-22 -38 -45 -50 0
-27 -33 -38 -45 0
-27 -33 -38 -50 0
-27 -33 -45 -50 0
-27 -38 -45 -50 0
-33 -38 -45 -50 0
-2 -11 -16 -23 0
-2 -11 -16 -28 0
-2 -11 -16 -34 0
-2 -11 -16 -39 0
-2 -11 -16 -46 0
-2 -11 -16 -51 0
-2 -11 -23 -28 0
-2 -11 -23 -34 0
-2 -11 -23 -39 0
-2 -11 -23 -46 0
-2 -11 -23 -51 0
-2 -11 -28 -34 0
-2 -11 -28 -39 0
-2 -11 -28 -46 0
-2 -11 -28 -51 0
-2 -11 -34 -39 0
-2 -11 -34 -46 0
-2 -11 -34 -51 0
-2 -11 -39 -46 0
-2 -11 -39 -51 0
-2 -11 -46 -51 0
-2 -16 -23 -28 0
-2 -16 -23 -34 0
-2 -16 -23 -39 0
-2 -16 -23 -46 0
-2 -16 -23 -51 0
-2 -16 -28 -34 0
-2 -16 -28 -39 0
-2 -16 -28 -46 0
-2 -16 -28 -51 0
-2 -16 -34 -39 0
-2 -16 -34 -46 0
-2 -16 -34 -51 0
-2 -16 -39 -46 0
-2 -16 -39 -51 0
-2 -16 -46 -51 0
-2 -23 -28 -34 0
-2 -23 -28 -39 0
-2 -23 -28 -46 0
-2 -23 -28 -51 0
-2 -23 -34 -39 0
-2 -23 -34 -46 0
-2 -23 -34 -51 0
-2 -23 -39 -46 0
-2 -23 -39 -51 0
-2 -23 -46 -51 0
-2 -28 -34 -39 0
-2 -28 -34 -46 0
-2 -28 -34 -51 0
-2 -28 -39 -46 0
-2 -28 -39 -51 0
-2 -28 -46 -51 0
-2 -34 -39 -46 0
-2 -34 -39 -51 0
-2 -34 -46 -51 0
-2 -39 -46 -51 0
-11 -16 -23 -28 0
-11 -16 -23 -34 0
-11 -16 -23 -39 0
-11 -16 -23 -46 0
-11 -16 -23 -51 0
-11 -16 -28 -34 0
-11 -16 -28 -39 0
-11 -16 -28 -46 0
-11 -16 -28 -51 0
-11 -16 -34 -39 0
-11 -16 -34 -46 0
-11 -16 -34 -51 0
-11 -16 -39 -46 0
-11 -16 -39 -51 0
-11 -16 -46 -51 0
-11 -23 -28 -34 0
-11 -23 -28 -39 0
-11 -23 -28 -46 0
-11 -23 -28 -51 0
-11 -23 -34 -39 0
-11 -23 -34 -46 0
-11 -23 -34 -51 0
-11 -23 -39 -46 0
-11 -23 -39 -51 0
-11 -23 -46 -51 0
-11 -28 -34 -39 0
-11 -28 -34 -46 0
-11 -28 -34 -51 0
-11 -28 -39 -46 0
-11 -28 -39 -51 0
-11 -28 -46 -51 0
-11 -34 -39 -46 0
-11 -34 -39 -51 0
-11 -34 -46 -51 0
-11 -39 -46 -51 0
-16 -23 -28 -34 0
-16 -23 -28 -39 0
-16 -23 -28 -46 0
-16 -23 -28 -51 0
-16 -23 -34 -39 0
-16 -23 -34 -46 0
-16 -23 -34 -51 0
-16 -23 -39 -46 0
-16 -23 -39 -51 0
-16 -23 -46 -51 0
-16 -28 -34 -39 0
-16 -28 -34 -46 0
-16 -28 -34 -51 0
-16 -28 -39 -46 0
-16 -28 -39 -51 0
-16 -28 -46 -51 0
-16 -34 -39 -46 0
-16 -34 -39 -51 0
-16 -34 -46 -51 0
-16 -39 -46 -51 0
-23 -28 -34 -39 0
-23 -28 -34 -46 0
-23 -28 -34 -51 0
-23 -28 -39 -46 0
-23 -28 -39 -51 0
-23 -28 -46 -51 0
-23 -34 -39 -46 0
-23 -34 -39 -51 0
-23 -34 -46 -51 0
-23 -39 -46 -51 0
-28 -34 -39 -46 0
-28 -34 -39 -51 0
-28 -34 -46 -51 0
-28 -39 -46 -51 0
-34 -39 -46 -51 0
-3 -12 -17 -24 0
-3 -12 -17 -29 0
-3 -12 -17 -35 0
-3 -12 -17 -40 0
-3 -12 -17 -47 0
-3 -12 -17 -52 0
-3 -12 -24 -29 0
-3 -12 -24 -35 0
-3 -12 -24 -40 0
-3 -12 -24 -47 0
-3 -12 -24 -52 0
-3 -12 -29 -35 0
-3 -12 -29 -40 0
-3 -12 -29 -47 0
-3 -12 -29 -52 0
-3 -12 -35 -40 0
-3 -12 -35 -47 0
-3 -12 -35 -52 0
-3 -12 -40 -47 0
-3 -12 -40 -52 0
-3 -12 -47 -52 0
-3 -17 -24 -29 0
-3 -17 -24 -35 0
-3 -17 -24 -40 0
-3 -17 -24 -47 0
-3 -17 -24 -52 0
-3 -17 -29 -35 0
-3 -17 -29 -40 0
-3 -17 -29 -47 0
-3 -17 -29 -52 0
-3 -17 -35 -40 0
-3 -17 -35 -47 0
-3 -17 -35 -52 0
-3 -17 -40 -47 0
-3 -17 -40 -52 0
-3 -17 -47 -52 0
-3 -24 -29 -35 0
-3 -24 -29 -40 0
-3 -24 -29 -47 0
-3 -24 -29 -52 0
-3 -24 -35 -40 0
-3 -24 -35 -47 0
-3 -24 -35 -52 0
-3 -24 -40 -47 0
-3 -24 -40 -52 0
-3 -24 -47 -52 0
-3 -29 -35 -40 0
-3 -29 -35 -47 0
-3 -29 -35 -52 0
-3 -29 -40 -47 0
-3 -29 -40 -52 0
-3 -29 -47 -52 0
-3 -35 -40 -47 0
-3 -35 -40 -52 0
-3 -35 -47 -52 0
-3 -40 -47 -52 0
-12 -17 -24 -29 0
-12 -17 -24 -35 0
-12 -17 -24 -40 0
-12 -17 -24 -47 0
-12 -17 -24 -52 0
-12 -17 -29 -35 0
-12 -17 -29 -40 0
-12 -17 -29 -47 0
-12 -17 -29 -52 0
-12 -17 -35 -40 0
-12 -17 -35 -47 0
-12 -17 -35 -52 0
-12 -17 -40 -47 0
-12 -17 -40 -52 0
-12 -17 -47 -52 0
-12 -24 -29 -35 0
-12 -24 -29 -40 0
-12 -24 -29 -47 0
-12 -24 -29 -52 0
-12 -24 -35 -40 0
-12 -24 -35 -47 0
-12 -24 -35 -52 0
-12 -24 -40 -47 0
-12 -24 -40 -52 0
-12 -24 -47 -52 0
-12 -29 -35 -40 0
-12 -29 -35 -47 0
-12 -29 -35 -52 0
-12 -29 -40 -47 0
-12 -29 -40 -52 0
-12 -29 -47 -52 0
-12 -35 -40 -47 0
-12 -35 -40 -52 0
-12 -35 -47 -52 0
-12 -40 -47 -52 0
-17 -24 -29 -35 0
-17 -24 -29 -40 0
-17 -24 -29 -47 0
-17 -24 -29 -52 0
-17 -24 -35 -40 0
-17 -24 -35 -47 0
-17 -24 -35 -52 0
-17 -24 -40 -47 0
-17 -24 -40 -52 0
-17 -24 -47 -52 0
-17 -29 -35 -40 0
-17 -29 -35 -47 0
-17 -29 -35 -52 0
-17 -29 -40 -47 0
-17 -29 -40 -52 0
-17 -29 -47 -52 0
-17 -35 -40 -47 0
-17 -35 -40 -52 0
-17 -35 -47 -52 0
-17 -40 -47 -52 0
-24 -29 -35 -40 0
-24 -29 -35 -47 0
-24 -29 -35 -52 0
-24 -29 -40 -47 0
-24 -29 -40 -52 0
-24 -29 -47 -52 0
-24 -35 -40 -47 0
-24 -35 -40 -52 0
-24 -35 -47 -52 0
-24 -40 -47 -52 0
-29 -35 -40 -47 0
-29 -35 -40 -52 0
-29 -35 -47 -52 0
-29 -40 -47 -52 0
-35 -40 -47 -52 0
-4 -7 -18 -19 0
-4 -7 -18 -30 0
-4 -7 -18 -36 0
-4 -7 -18 -41 0
-4 -7 -18 -48 0
-4 -7 -18 -53 0
-4 -7 -19 -30 0
-4 -7 -19 -36 0
-4 -7 -19 -41 0
-4 -7 -19 -48 0
-4 -7 -19 -53 0
-4 -7 -30 -36 0
-4 -7 -30 -41 0
-4 -7 -30 -48 0
-4 -7 -30 -53 0
-4 -7 -36 -41 0
-4 -7 -36 -48 0
-4 -7 -36 -53 0
-4 -7 -41 -48 0
-4 -7 -41 -53 0
-4 -7 -48 -53 0
-4 -18 -19 -30 0
-4 -18 -19 -36 0
-4 -18 -19 -41 0
-4 -18 -19 -48 0
-4 -18 -19 -53 0
-4 -18 -30 -36 0
-4 -18 -30 -41 0
-4 -18 -30 -48 0
-4 -18 -30 -53 0
-4 -18 -36 -41 0
-4 -18 -36 -48 0
-4 -18 -36 -53 0
-4 -18 -41 -48 0
-4 -18 -41 -53 0
-4 -18 -48 -53 0
-4 -19 -30 -36 0
-4 -19 -30 -41 0
-4 -19 -30 -48 0
-4 -19 -30 -53 0
-4 -19 -36 -41 0
-4 -19 -36 -48 0
-4 -19 -36 -53 0
-4 -19 -41 -48 0
-4 -19 -41 -53 0
-4 -19 -48 -53 0
-4 -30 -36 -41 0
-4 -30 -36 -48 0
-4 -30 -36 -53 0
-4 -30 -41 -48 0
-4 -30 -41 -53 0
-4 -30 -48 -53 0
-4 -36 -41 -48 0
-4 -36 -41 -53 0
-4 -36 -48 -53 0
-4 -41 -48 -53 0
-7 -18 -19 -30 0
-7 -18 -19 -36 0
-7 -18 -19 -41 0
-7 -18 -19 -48 0
-7 -18 -19 -53 0
-7 -18 -30 -36 0
-7 -18 -30 -41 0
-7 -18 -30 -48 0
-7 -18 -30 -53 0
-7 -18 -36 -41 0
-7 -18 -36 -48 0
-7 -18 -36 -53 0
-7 -18 -41 -48 0
-7 -18 -41 -53 0
-7 -18 -48 -53 0
-7 -19 -30 -36 0
-7 -19 -30 -41 0
-7 -19 -30 -48 0
-7 -19 -30 -53 0
-7 -19 -36 -41 0
-7 -19 -36 -48 0
-7 -19 -36 -53 0
-7 -19 -41 -48 0
-7 -19 -41 -53 0
-7 -19 -48 -53 0
-7 -30 -36 -41 0
-7 -30 -36 -48 0
-7 -30 -36 -53 0
-7 -30 -41 -48 0
-7 -30 -41 -53 0
-7 -30 -48 -53 0
-7 -36 -41 -48 0
-7 -36 -41 -53 0
-7 -36 -48 -53 0
-7 -41 -48 -53 0
-18 -19 -30 -36 0
-18 -19 -30 -41 0
-18 -19 -30 -48 0
-18 -19 -30 -53 0
-18 -19 -36 -41 0
-18 -19 -36 -48 0
-18 -19 -36 -53 0
-18 -19 -41 -48 0
-18 -19 -41 -53 0
-18 -19 -48 -53 0
-18 -30 -36 -41 0
-18 -30 -36 -48 0
-18 -30 -36 -53 0
-18 -30 -41 -48 0
-18 -30 -41 -53 0
-18 -30 -48 -53 0
-18 -36 -41 -48 0
-18 -36 -41 -53 0
-18 -36 -48 -53 0
-18 -41 -48 -53 0
-19 -30 -36 -41 0
-19 -30 -36 -48 0
-19 -30 -36 -53 0
-19 -30 -41 -48 0
-19 -30 -41 -53 0
-19 -30 -48 -53 0
-19 -36 -41 -48 0
-19 -36 -41 -53 0
-19 -36 -48 -53 0
-19 -41 -48 -53 0
-30 -36 -41 -48 0
-30 -36 -41 -53 0
-30 -36 -48 -53 0
-30 -41 -48 -53 0
-36 -41 -48 -53 0
-5 -8 -13 -20 0
-5 -8 -13 -25 0
-5 -8 -13 -31 0
-5 -8 -13 -42 0
-5 -8 -13 -43 0
-5 -8 -13 -54 0
-5 -8 -20 -25 0
-5 -8 -20 -31 0
-5 -8 -20 -42 0
-5 -8 -20 -43 0
-5 -8 -20 -54 0
-5 -8 -25 -31 0
-5 -8 -25 -42 0
-5 -8 -25 -43 0
-5 -8 -25 -54 0
-5 -8 -31 -42 0
-5 -8 -31 -43 0
-5 -8 -31 -54 0
-5 -8 -42 -43 0
-5 -8 -42 -54 0
-5 -8 -43 -54 0
-5 -13 -20 -25 0
-5 -13 -20 -31 0
-5 -13 -20 -42 0
-5 -13 -20 -43 0
-5 -13 -20 -54 0
-5 -13 -25 -31 0
-5 -13 -25 -42 0
-5 -13 -25 -43 0
-5 -13 -25 -54 0
-5 -13 -31 -42 0
-5 -13 -31 -43 0
-5 -13 -31 -54 0
-5 -13 -42 -43 0
-5 -13 -42 -54 0
-5 -13 -43 -54 0
-5 -20 -25 -31 0
-5 -20 -25 -42 0
-5 -20 -25 -43 0
-5 -20 -25 -54 0
-5 -20 -31 -42 0
-5 -20 -31 -43 0
-5 -20 -31 -54 0
-5 -20 -42 -43 0
-5 -20 -42 -54 0
-5 -20 -43 -54 0
-5 -25 -31 -42 0
-5 -25 -31 -43 0
-5 -25 -31 -54 0
-5 -25 -42 -43 0
-5 -25 -42 -54 0
-5 -25 -43 -54 0
-5 -31 -42 -43 0
-5 -31 -42 -54 0
-5 -31 -43 -54 0
-5 -42 -43 -54 0
-8 -13 -20 -25 0
-8 -13 -20 -31 0
-8 -13 -20 -42 0
-8 -13 -20 -43 0
-8 -13 -20 -54 0
-8 -13 -25 -31 0
-8 -13 -25 -42 0
-8 -13 -25 -43 0
-8 -13 -25 -54 0
-8 -13 -31 -42 0
-8 -13 -31 -43 0
-8 -13 -31 -54 0
-8 -13 -42 -43 0
-8 -13 -42 -54 0
-8 -13 -43 -54 0
-8 -20 -25 -31 0
-8 -20 -25 -42 0
-8 -20 -25 -43 0
-8 -20 -25 -54 0
-8 -20 -31 -42 0
-8 -20 -31 -43 0
-8 -20 -31 -54 0
-8 -20 -42 -43 0
-8 -20 -42 -54 0
-8 -20 -43 -54 0
-8 -25 -31 -42 0
-8 -25 -31 -43 0
-8 -25 -31 -54 0
-8 -25 -42 -43 0
-8 -25 -42 -54 0
-8 -25 -43 -54 0
-8 -31 -42 -43 0
-8 -31 -42 -54 0
-8 -31 -43 -54 0
-8 -42 -43 -54 0
-13 -20 -25 -31 0
-13 -20 -25 -42 0
-13 -20 -25 -43 0
-13 -20 -25 -54 0
-13 -20 -31 -42 0
-13 -20 -31 -43 0
-13 -20 -31 -54 0
-13 -20 -42 -43 0
-13 -20 -42 -54 0
-13 -20 -43 -54 0
-13 -25 -31 -42 0
-13 -25 -31 -43 0
-13 -25 -31 -54 0
-13 -25 -42 -43 0
-13 -25 -42 -54 0
-13 -25 -43 -54 0
-13 -31 -42 -43 0
-13 -31 -42 -54 0
-13 -31 -43 -54 0
-13 -42 -43 -54 0
-20 -25 -31 -42 0
-20 -25 -31 -43 0
-20 -25 -31 -54 0
-20 -25 -42 -43 0
-20 -25 -42 -54 0
-20 -25 -43 -54 0
-20 -31 -42 -43 0
-20 -31 -42 -54 0
-20 -31 -43 -54 0
-20 -42 -43 -54 0
-25 -31 -42 -43 0
-25 -31 -42 -54 0
-25 -31 -43 -54 0
-25 -42 -43 -54 0
-31 -42 -43 -54 0
-6 -9 -14 -21 0
-6 -9 -14 -26 0
-6 -9 -14 -32 0
-6 -9 -14 -37 0
-6 -9 -14 -44 0
-6 -9 -14 -49 0
-6 -9 -21 -26 0
-6 -9 -21 -32 0
-6 -9 -21 -37 0
-6 -9 -21 -44 0
-6 -9 -21 -49 0
-6 -9 -26 -32 0
-6 -9 -26 -37 0
-6 -9 -26 -44 0
-6 -9 -26 -49 0
-6 -9 -32 -37 0
-6 -9 -32 -44 0
-6 -9 -32 -49 0
-6 -9 -37 -44 0
-6 -9 -37 -49 0
-6 -9 -44 -49 0
-6 -14 -21 -26 0
-6 -14 -21 -32 0
-6 -14 -21 -37 0
-6 -14 -21 -44 0
-6 -14 -21 -49 0
-6 -14 -26 -32 0
-6 -14 -26 -37 0
-6 -14 -26 -44 0
-6 -14 -26 -49 0
-6 -14 -32 -37 0
-6 -14 -32 -44 0
-6 -14 -32 -49 0
-6 -14 -37 -44 0
-6 -14 -37 -49 0
-6 -14 -44 -49 0
-6 -21 -26 -32 0
-6 -21 -26 -37 0
-6 -21 -26 -44 0
-6 -21 -26 -49 0
-6 -21 -32 -37 0
-6 -21 -32 -44 0
-6 -21 -32 -49 0
-6 -21 -37 -44 0
-6 -21 -37 -49 0
-6 -21 -44 -49 0
-6 -26 -32 -37 0
-6 -26 -32 -44 0
-6 -26 -32 -49 0
-6 -26 -37 -44 0
-6 -26 -37 -49 0
-6 -26 -44 -49 0
-6 -32 -37 -44 0
-6 -32 -37 -49 0
-6 -32 -44 -49 0
-6 -37 -44 -49 0
-9 -14 -21 -26 0
-9 -14 -21 -32 0
-9 -14 -21 -37 0
-9 -14 -21 -44 0
-9 -14 -21 -49 0
-9 -14 -26 -32 0
-9 -14 -26 -37 0
-9 -14 -26 -44 0
-9 -14 -26 -49 0
-9 -14 -32 -37 0
-9 -14 -32 -44 0
-9 -14 -32 -49 0
-9 -14 -37 -44 0
-9 -14 -37 -49 0
-9 -14 -44 -49 0
-9 -21 -26 -32 0
-9 -21 -26 -37 0
-9 -21 -26 -44 0
-9 -21 -26 -49 0
-9 -21 -32 -37 0
-9 -21 -32 -44 0
-9 -21 -32 -49 0
-9 -21 -37 -44 0
-9 -21 -37 -49 0
-9 -21 -44 -49 0
-9 -26 -32 -37 0
-9 -26 -32 -44 0
-9 -26 -32 -49 0
-9 -26 -37 -44 0
-9 -26 -37 -49 0
-9 -26 -44 -49 0
-9 -32 -37 -44 0
-9 -32 -37 -49 0
-9 -32 -44 -49 0
-9 -37 -44 -49 0
-14 -21 -26 -32 0
-14 -21 -26 -37 0
-14 -21 -26 -44 0
-14 -21 -26 -49 0
-14 -21 -32 -37 0
-14 -21 -32 -44 0
-14 -21 -32 -49 0
-14 -21 -37 -44 0
-14 -21 -37 -49 0
-14 -21 -44 -49 0
-14 -26 -32 -37 0
-14 -26 -32 -44 0
-14 -26 -32 -49 0
-14 -26 -37 -44 0
-14 -26 -37 -49 0
-14 -26 -44 -49 0
-14 -32 -37 -44 0
-14 -32 -37 -49 0
-14 -32 -44 -49 0
-14 -37 -44 -49 0
-21 -26 -32 -37 0
-21 -26 -32 -44 0
-21 -26 -32 -49 0
-21 -26 -37 -44 0
-21 -26 -37 -49 0
-21 -26 -44 -49 0
-21 -32 -37 -44 0
-21 -32 -37 -49 0
-21 -32 -44 -49 0
-21 -37 -44 -49 0
-26 -32 -37 -44 0
-26 -32 -37 -49 0
-26 -32 -44 -49 0
-26 -37 -44 -49 0
-32 -37 -44 -49 0
-1 -8 -17 -19 0
-1 -8 -17 -30 0
-1 -8 -17 -31 0
-1 -8 -17 -40 0
-1 -8 -17 -46 0
-1 -8 -17 -51 0
-1 -8 -19 -30 0
-1 -8 -19 -31 0
-1 -8 -19 -40 0
-1 -8 -19 -46 0
-1 -8 -19 -51 0
-1 -8 -30 -31 0
-1 -8 -30 -40 0
-1 -8 -30 -46 0
-1 -8 -30 -51 0
-1 -8 -31 -40 0
-1 -8 -31 -46 0
-1 -8 -31 -51 0
-1 -8 -40 -46 0
-1 -8 -40 -51 0
-1 -8 -46 -51 0
-1 -17 -19 -30 0
-1 -17 -19 -31 0
-1 -17 -19 -40 0
-1 -17 -19 -46 0
-1 -17 -19 -51 0
-1 -17 -30 -31 0
-1 -17 -30 -40 0
-1 -17 -30 -46 0
-1 -17 -30 -51 0
-1 -17 -31 -40 0
-1 -17 -31 -46 0
-1 -17 -31 -51 0
-1 -17 -40 -46 0
-1 -17 -40 -51 0
-1 -17 -46 -51 0
-1 -19 -30 -31 0
-1 -19 -30 -40 0
-1 -19 -30 -46 0
-1 -19 -30 -51 0
-1 -19 -31 -40 0
-1 -19 -31 -46 0
-1 -19 -31 -51 0
-1 -19 -40 -46 0
-1 -19 -40 -51 0
-1 -19 -46 -51 0
-1 -30 -31 -40 0
-1 -30 -31 -46 0
-1 -30 -31 -51 0
-1 -30 -40 -46 0
-1 -30 -40 -51 0
-1 -30 -46 -51 0
-1 -31 -40 -46 0
-1 -31 -40 -51 0
-1 -31 -46 -51 0
-1 -40 -46 -51 0
-8 -17 -19 -30 0
-8 -17 -19 -31 0
-8 -17 -19 -40 0
-8 -17 -19 -46 0
-8 -17 -19 -51 0
-8 -17 -30 -31 0
-8 -17 -30 -40 0
-8 -17 -30 -46 0
-8 -17 -30 -51 0
-8 -17 -31 -40 0
-8 -17 -31 -46 0
-8 -17 -31 -51 0
-8 -17 -40 -46 0
-8 -17 -40 -51 0
-8 -17 -46 -51 0
-8 -19 -30 -31 0
-8 -19 -30 -40 0
-8 -19 -30 -46 0
-8 -19 -30 -51 0
-8 -19 -31 -40 0
-8 -19 -31 -46 0
-8 -19 -31 -51 0
-8 -19 -40 -46 0
-8 -19 -40 -51 0
-8 -19 -46 -51 0
-8 -30 -31 -40 0
-8 -30 -31 -46 0
-8 -30 -31 -51 0
-8 -30 -40 -46 0
-8 -30 -40 -51 0
-8 -30 -46 -51 0
-8 -31 -40 -46 0
-8 -31 -40 -51 0
-8 -31 -46 -51 0
-8 -40 -46 -51 0
-17 -19 -30 -31 0
-17 -19 -30 -40 0
-17 -19 -30 -46 0
-17 -19 -30 -51 0
-17 -19 -31 -40 0
-17 -19 -31 -46 0
-17 -19 -31 -51 0
-17 -19 -40 -46 0
-17 -19 -40 -51 0
-17 -19 -46 -51 0
-17 -30 -31 -40 0
-17 -30 -31 -46 0
-17 -30 -31 -51 0
-17 -30 -40 -46 0
-17 -30 -40 -51 0
-17 -30 -46 -51 0
-17 -31 -40 -46 0
-17 -31 -40 -51 0
-17 -31 -46 -51 0
-17 -40 -46 -51 0
-19 -30 -31 -40 0
-19 -30 -31 -46 0
-19 -30 -31 -51 0
-19 -30 -40 -46 0
-19 -30 -40 -51 0
-19 -30 -46 -51 0
-19 -31 -40 -46 0
-19 -31 -40 -51 0
-19 -31 -46 -51 0
-19 -40 -46 -51 0
-30 -31 -40 -46 0
-30 -31 -40 -51 0
-30 -31 -46 -51 0
-30 -40 -46 -51 0
-31 -40 -46 -51 0
-2 -9 -18 -20 0
-2 -9 -18 -25 0
-2 -9 -18 -32 0
-2 -9 -18 -41 0
-2 -9 -18 -45 0
-2 -9 -18 -52 0
-2 -9 -20 -25 0
-2 -9 -20 -32 0
-2 -9 -20 -41 0
-2 -9 -20 -45 0
-2 -9 -20 -52 0
-2 -9 -25 -32 0
-2 -9 -25 -41 0
-2 -9 -25 -45 0
-2 -9 -25 -52 0
-2 -9 -32 -41 0
-2 -9 -32 -45 0
-2 -9 -32 -52 0
-2 -9 -41 -45 0
-2 -9 -41 -52 0
-2 -9 -45 -52 0
-2 -18 -20 -25 0
-2 -18 -20 -32 0
-2 -18 -20 -41 0
-2 -18 -20 -45 0
-2 -18 -20 -52 0
-2 -18 -25 -32 0
-2 -18 -25 -41 0
-2 -18 -25 -45 0
-2 -18 -25 -52 0
-2 -18 -32 -41 0
-2 -18 -32 -45 0
-2 -18 -32 -52 0
-2 -18 -41 -45 0
-2 -18 -41 -52 0
-2 -18 -45 -52 0
-2 -20 -25 -32 0
-2 -20 -25 -41 0
-2 -20 -25 -45 0
-2 -20 -25 -52 0
-2 -20 -32 -41 0
-2 -20 -32 -45 0
-2 -20 -32 -52 0
-2 -20 -41 -45 0
-2 -20 -41 -52 0
-2 -20 -45 -52 0
-2 -25 -32 -41 0
-2 -25 -32 -45 0
-2 -25 -32 -52 0
-2 -25 -41 -45 0
-2 -25 -41 -52 0
-2 -25 -45 -52 0
-2 -32 -41 -45 0
-2 -32 -41 -52 0
-2 -32 -45 -52 0
-2 -41 -45 -52 0
-9 -18 -20 -25 0
-9 -18 -20 -32 0
-9 -18 -20 -41 0
-9 -18 -20 -45 0
-9 -18 -20 -52 0
-9 -18 -25 -32 0
-9 -18 -25 -41 0
-9 -18 -25 -45 0
-9 -18 -25 -52 0
-9 -18 -32 -41 0
-9 -18 -32 -45 0
-9 -18 -32 -52 0
-9 -18 -41 -45 0
-9 -18 -41 -52 0
-9 -18 -45 -52 0
-9 -20 -25 -32 0
-9 -20 -25 -41 0
-9 -20 -25 -45 0
-9 -20 -25 -52 0
-9 -20 -32 -41 0
-9 -20 -32 -45 0
-9 -20 -32 -52 0
-9 -20 -41 -45 0
-9 -20 -41 -52 0
-9 -20 -45 -52 0
-9 -25 -32 -41 0
-9 -25 -32 -45 0
-9 -25 -32 -52 0
-9 -25 -41 -45 0
-9 -25 -41 -52 0
-9 -25 -45 -52 0
-9 -32 -41 -45 0
-9 -32 -41 -52 0
-9 -32 -45 -52 0
-9 -41 -45 -52 0
-18 -20 -25 -32 0
-18 -20 -25 -41 0
-18 -20 -25 -45 0
-18 -20 -25 -52 0
-18 -20 -32 -41 0
-18 -20 -32 -45 0
-18 -20 -32 -52 0
-18 -20 -41 -45 0
-18 -20 -41 -52 0
-18 -20 -45 -52 0
-18 -25 -32 -41 0
-18 -25 -32 -45 0
-18 -25 -32 -52 0
-18 -25 -41 -45 0
-18 -25 -41 -52 0
-18 -25 -45 -52 0
-18 -32 -41 -45 0
-18 -32 -41 -52 0
-18 -32 -45 -52 0
-18 -41 -45 -52 0
-20 -25 -32 -41 0
-20 -25 -32 -45 0
-20 -25 -32 -52 0
-20 -25 -41 -45 0
-20 -25 -41 -52 0
-20 -25 -45 -52 0
-20 -32 -41 -45 0
-20 -32 -41 -52 0
-20 -32 -45 -52 0
-20 -41 -45 -52 0
-25 -32 -41 -45 0
-25 -32 -41 -52 0
-25 -32 -45 -52 0
-25 -41 -45 -52 0
-32 -41 -45 -52 0
-3 -10 -13 -21 0
-3 -10 -13 -26 0
-3 -10 -13 -33 0
-3 -10 -13 -42 0
-3 -10 -13 -46 0
-3 -10 -13 -53 0
-3 -10 -21 -26 0
-3 -10 -21 -33 0
-3 -10 -21 -42 0
-3 -10 -21 -46 0
-3 -10 -21 -53 0
-3 -10 -26 -33 0
-3 -10 -26 -42 0
-3 -10 -26 -46 0
-3 -10 -26 -53 0
-3 -10 -33 -42 0
-3 -10 -33 -46 0
-3 -10 -33 -53 0
-3 -10 -42 -46 0
-3 -10 -42 -53 0
-3 -10 -46 -53 0
-3 -13 -21 -26 0
-3 -13 -21 -33 0
-3 -13 -21 -42 0
-3 -13 -21 -46 0
-3 -13 -21 -53 0
-3 -13 -26 -33 0
-3 -13 -26 -42 0
-3 -13 -26 -46 0
-3 -13 -26 -53 0
-3 -13 -33 -42 0
-3 -13 -33 -46 0
-3 -13 -33 -53 0
-3 -13 -42 -46 0
-3 -13 -42 -53 0
-3 -13 -46 -53 0
-3 -21 -26 -33 0
-3 -21 -26 -42 0
-3 -21 -26 -46 0
-3 -21 -26 -53 0
-3 -21 -33 -42 0
-3 -21 -33 -46 0
-3 -21 -33 -53 0
-3 -21 -42 -46 0
-3 -21 -42 -53 0
-3 -21 -46 -53 0
-3 -26 -33 -42 0
-3 -26 -33 -46 0
-3 -26 -33 -53 0
-3 -26 -42 -46 0
-3 -26 -42 -53 0
-3 -26 -46 -53 0
-3 -33 -42 -46 0
-3 -33 -42 -53 0
-3 -33 -46 -53 0
-3 -42 -46 -53 0
-10 -13 -21 -26 0
-10 -13 -21 -33 0
-10 -13 -21 -42 0
-10 -13 -21 -46 0
-10 -13 -21 -53 0
-10 -13 -26 -33 0
-10 -13 -26 -42 0
-10 -13 -26 -46 0
-10 -13 -26 -53 0
-10 -13 -33 -42 0
-10 -13 -33 -46 0
-10 -13 -33 -53 0
-10 -13 -42 -46 0
-10 -13 -42 -53 0
-10 -13 -46 -53 0
-10 -21 -26 -33 0
-10 -21 -26 -42 0
-10 -21 -26 -46 0
-10 -21 -26 -53 0
-10 -21 -33 -42 0
-10 -21 -33 -46 0
-10 -21 -33 -53 0
-10 -21 -42 -46 0
-10 -21 -42 -53 0
-10 -21 -46 -53 0
-10 -26 -33 -42 0
-10 -26 -33 -46 0
-10 -26 -33 -53 0
-10 -26 -42 -46 0
-10 -26 -42 -53 0
-10 -26 -46 -53 0
-10 -33 -42 -46 0
-10 -33 -42 -53 0
-10 -33 -46 -53 0
-10 -42 -46 -53 0
-13 -21 -26 -33 0
-13 -21 -26 -42 0
-13 -21 -26 -46 0
-13 -21 -26 -53 0
-13 -21 -33 -42 0
-13 -21 -33 -46 0
-13 -21 -33 -53 0
-13 -21 -42 -46 0
-13 -21 -42 -53 0
-13 -21 -46 -53 0
-13 -26 -33 -42 0
-13 -26 -33 -46 0
-13 -26 -33 -53 0
-13 -26 -42 -46 0
-13 -26 -42 -53 0
-13 -26 -46 -53 0
-13 -33 -42 -46 0
-13 -33 -42 -53 0
-13 -33 -46 -53 0
-13 -42 -46 -53 0
-21 -26 -33 -42 0
-21 -26 -33 -46 0
-21 -26 -33 -53 0
-21 -26 -42 -46 0
-21 -26 -42 -53 0
-21 -26 -46 -53 0
-21 -33 -42 -46 0
-21 -33 -42 -53 0
-21 -33 -46 -53 0
-21 -42 -46 -53 0
-26 -33 -42 -46 0
-26 -33 -42 -53 0
-26 -33 -46 -53 0
-26 -42 -46 -53 0
-33 -42 -46 -53 0
-4 -11 -14 -22 0
-4 -11 -14 -27 0
-4 -11 -14 -34 0
-4 -11 -14 -37 0
-4 -11 -14 -47 0
-4 -11 -14 -54 0
-4 -11 -22 -27 0
-4 -11 -22 -34 0
-4 -11 -22 -37 0
-4 -11 -22 -47 0
-4 -11 -22 -54 0
-4 -11 -27 -34 0
-4 -11 -27 -37 0
-4 -11 -27 -47 0
-4 -11 -27 -54 0
-4 -11 -34 -37 0
-4 -11 -34 -47 0
-4 -11 -34 -54 0
-4 -11 -37 -47 0
-4 -11 -37 -54 0
-4 -11 -47 -54 0
-4 -14 -22 -27 0
-4 -14 -22 -34 0
-4 -14 -22 -37 0
-4 -14 -22 -47 0
-4 -14 -22 -54 0
-4 -14 -27 -34 0
-4 -14 -27 -37 0
-4 -14 -27 -47 0
-4 -14 -27 -54 0
-4 -14 -34 -37 0
-4 -14 -34 -47 0
-4 -14 -34 -54 0
-4 -14 -37 -47 0
-4 -14 -37 -54 0
-4 -14 -47 -54 0
-4 -22 -27 -34 0
-4 -22 -27 -37 0
-4 -22 -27 -47 0
-4 -22 -27 -54 0
-4 -22 -34 -37 0
-4 -22 -34 -47 0
-4 -22 -34 -54 0
-4 -22 -37 -47 0
-4 -22 -37 -54 0
-4 -22 -47 -54 0
-4 -27 -34 -37 0
-4 -27 -34 -47 0
-4 -27 -34 -54 0
-4 -27 -37 -47 0
-4 -27 -37 -54 0
-4 -27 -47 -54 0
-4 -34 -37 -47 0
-4 -34 -37 -54 0
-4 -34 -47 -54 0
-4 -37 -47 -54 0
-11 -14 -22 -27 0
-11 -14 -22 -34 0
-11 -14 -22 -37 0
-11 -14 -22 -47 0
-11 -14 -22 -54 0
-11 -14 -27 -34 0
-11 -14 -27 -37 0
-11 -14 -27 -47 0
-11 -14 -27 -54 0
-11 -14 -34 -37 0
-11 -14 -34 -47 0
-11 -14 -34 -54 0
-11 -14 -37 -47 0
-11 -14 -37 -54 0
-11 -14 -47 -54 0
-11 -22 -27 -34 0
-11 -22 -27 -37 0
-11 -22 -27 -47 0
-11 -22 -27 -54 0
-11 -22 -34 -37 0
-11 -22 -34 -47 0
-11 -22 -34 -54 0
-11 -22 -37 -47 0
-11 -22 -37 -54 0
-11 -22 -47 -54 0
-11 -27 -34 -37 0
-11 -27 -34 -47 0
-11 -27 -34 -54 0
-11 -27 -37 -47 0
-11 -27 -37 -54 0
-11 -27 -47 -54 0
-11 -34 -37 -47 0
-11 -34 -37 -54 0
-11 -34 -47 -54 0
-11 -37 -47 -54 0
-14 -22 -27 -34 0
-14 -22 -27 -37 0
-14 -22 -27 -47 0
-14 -22 -27 -54 0
-14 -22 -34 -37 0
-14 -22 -34 -47 0
-14 -22 -34 -54 0
-14 -22 -37 -47 0
-14 -22 -37 -54 0
-14 -22 -47 -54 0
-14 -27 -34 -37 0
-14 -27 -34 -47 0
-14 -27 -34 -54 0
-14 -27 -37 -47 0
-14 -27 -37 -54 0
-14 -27 -47 -54 0
-14 -34 -37 -47 0
-14 -34 -37 -54 0
-14 -34 -47 -54 0
-14 -37 -47 -54 0
-22 -27 -34 -37 0
-22 -27 -34 -47 0
-22 -27 -34 -54 0
-22 -27 -37 -47 0
-22 -27 -37 -54 0
-22 -27 -47 -54 0
-22 -34 -37 -47 0
-22 -34 -37 -54 0
-22 -34 -47 -54 0
-22 -37 -47 -54 0
-27 -34 -37 -47 0
-27 -34 -37 -54 0
-27 -34 -47 -54 0
-27 -37 -47 -54 0
-34 -37 -47 -54 0
-5 -12 -15 -23 0
-5 -12 -15 -28 0
-5 -12 -15 -35 0
-5 -12 -15 -38 0
-5 -12 -15 -48 0
-5 -12 -15 -49 0
-5 -12 -23 -28 0
-5 -12 -23 -35 0
-5 -12 -23 -38 0
-5 -12 -23 -48 0
-5 -12 -23 -49 0
-5 -12 -28 -35 0
-5 -12 -28 -38 0
-5 -12 -28 -48 0
-5 -12 -28 -49 0
-5 -12 -35 -38 0
-5 -12 -35 -48 0
-5 -12 -35 -49 0
-5 -12 -38 -48 0
-5 -12 -38 -49 0
-5 -12 -48 -49 0
-5 -15 -23 -28 0
-5 -15 -23 -35 0
-5 -15 -23 -38 0
-5 -15 -23 -48 0
-5 -15 -23 -49 0
-5 -15 -28 -35 0
-5 -15 -28 -38 0
-5 -15 -28 -48 0
-5 -15 -28 -49 0
-5 -15 -35 -38 0
-5 -15 -35 -48 0
-5 -15 -35 -49 0
-5 -15 -38 -48 0
-5 -15 -38 -49 0
-5 -15 -48 -49 0
-5 -23 -28 -35 0
-5 -23 -28 -38 0
-5 -23 -28 -48 0
-5 -23 -28 -49 0
-5 -23 -35 -38 0
-5 -23 -35 -48 0
-5 -23 -35 -49 0
-5 -23 -38 -48 0
-5 -23 -38 -49 0
-5 -23 -48 -49 0
-5 -28 -35 -38 0
-5 -28 -35 -48 0
-5 -28 -35 -49 0
-5 -28 -38 -48 0
-5 -28 -38 -49 0
-5 -28 -48 -49 0
-5 -35 -38 -48 0
-5 -35 -38 -49 0
-5 -35 -48 -49 0
-5 -38 -48 -49 0
-12 -15 -23 -28 0
-12 -15 -23 -35 0
-12 -15 -23 -38 0
-12 -15 -23 -48 0
-12 -15 -23 -49 0
-12 -15 -28 -35 0
-12 -15 -28 -38 0
-12 -15 -28 -48 0
-12 -15 -28 -49 0
-12 -15 -35 -38 0
-12 -15 -35 -48 0
-12 -15 -35 -49 0
-12 -15 -38 -48 0
-12 -15 -38 -49 0
-12 -15 -48 -49 0
-12 -23 -28 -35 0
-12 -23 -28 -38 0
-12 -23 -28 -48 0
-12 -23 -28 -49 0
-12 -23 -35 -38 0
-12 -23 -35 -48 0
-12 -23 -35 -49 0
-12 -23 -38 -48 0
-12 -23 -38 -49 0
-12 -23 -48 -49 0
-12 -28 -35 -38 0
-12 -28 -35 -48 0
-12 -28 -35 -49 0
-12 -28 -38 -48 0
-12 -28 -38 -49 0
-12 -28 -48 -49 0
-12 -35 -38 -48 0
-12 -35 -38 -49 0
-12 -35 -48 -49 0
-12 -38 -48 -49 0
-15 -23 -28 -35 0
-15 -23 -28 -38 0
-15 -23 -28 -48 0
-15 -23 -28 -49 0
-15 -23 -35 -38 0
-15 -23 -35 -48 0
-15 -23 -35 -49 0
-15 -23 -38 -48 0
-15 -23 -38 -49 0
-15 -23 -48 -49 0
-15 -28 -35 -38 0
-15 -28 -35 -48 0
-15 -28 -35 -49 0
-15 -28 -38 -48 0
-15 -28 -38 -49 0
-15 -28 -48 -49 0
-15 -35 -38 -48 0
-15 -35 -38 -49 0
-15 -35 -48 -49 0
-15 -38 -48 -49 0
-23 -28 -35 -38 0
-23 -28 -35 -48 0
-23 -28 -35 -49 0
-23 -28 -38 -48 0
-23 -28 -38 -49 0
-23 -28 -48 -49 0
-23 -35 -38 -48 0
-23 -35 -38 -49 0
-23 -35 -48 -49 0
-23 -38 -48 -49 0
-28 -35 -38 -48 0
-28 -35 -38 -49 0
-28 -35 -48 -49 0
-28 -38 -48 -49 0
-35 -38 -48 -49 0
-6 -7 -16 -24 0
-6 -7 -16 -29 0
-6 -7 -16 -36 0
-6 -7 -16 -39 0
-6 -7 -16 -43 0
-6 -7 -16 -50 0
-6 -7 -24 -29 0
-6 -7 -24 -36 0
-6 -7 -24 -39 0
-6 -7 -24 -43 0
-6 -7 -24 -50 0
-6 -7 -29 -36 0
-6 -7 -29 -39 0
-6 -7 -29 -43 0
-6 -7 -29 -50 0
-6 -7 -36 -39 0
-6 -7 -36 -43 0
-6 -7 -36 -50 0
-6 -7 -39 -43 0
-6 -7 -39 -50 0
-6 -7 -43 -50 0
-6 -16 -24 -29 0
-6 -16 -24 -36 0
-6 -16 -24 -39 0
-6 -16 -24 -43 0
-6 -16 -24 -50 0
-6 -16 -29 -36 0
-6 -16 -29 -39 0
-6 -16 -29 -43 0
-6 -16 -29 -50 0
-6 -16 -36 -39 0
-6 -16 -36 -43 0
-6 -16 -36 -50 0
-6 -16 -39 -43 0
-6 -16 -39 -50 0
-6 -16 -43 -50 0
-6 -24 -29 -36 0
-6 -24 -29 -39 0
-6 -24 -29 -43 0
-6 -24 -29 -50 0
-6 -24 -36 -39 0
-6 -24 -36 -43 0
-6 -24 -36 -50 0
-6 -24 -39 -43 0
-6 -24 -39 -50 0
-6 -24 -43 -50 0
-6 -29 -36 -39 0
-6 -29 -36 -43 0
-6 -29 -36 -50 0
-6 -29 -39 -43 0
-6 -29 -39 -50 0
-6 -29 -43 -50 0
-6 -36 -39 -43 0
-6 -36 -39 -50 0
-6 -36 -43 -50 0
-6 -39 -43 -50 0
-7 -16 -24 -29 0
-7 -16 -24 -36 0
-7 -16 -24 -39 0
-7 -16 -24 -43 0
-7 -16 -24 -50 0
-7 -16 -29 -36 0
-7 -16 -29 -39 0
-7 -16 -29 -43 0
-7 -16 -29 -50 0
-7 -16 -36 -39 0
-7 -16 -36 -43 0
-7 -16 -36 -50 0
-7 -16 -39 -43 0
-7 -16 -39 -50 0
-7 -16 -43 -50 0
-7 -24 -29 -36 0
-7 -24 -29 -39 0
-7 -24 -29 -43 0
-7 -24 -29 -50 0
-7 -24 -36 -39 0
-7 -24 -36 -43 0
-7 -24 -36 -50 0
-7 -24 -39 -43 0
-7 -24 -39 -50 0
-7 -24 -43 -50 0
-7 -29 -36 -39 0
-7 -29 -36 -43 0
-7 -29 -36 -50 0
-7 -29 -39 -43 0
-7 -29 -39 -50 0
-7 -29 -43 -50 0
-7 -36 -39 -43 0
-7 -36 -39 -50 0
-7 -36 -43 -50 0
-7 -39 -43 -50 0
-16 -24 -29 -36 0
-16 -24 -29 -39 0
-16 -24 -29 -43 0
-16 -24 -29 -50 0
-16 -24 -36 -39 0
-16 -24 -36 -43 0
-16 -24 -36 -50 0
-16 -24 -39 -43 0
-16 -24 -39 -50 0
-16 -24 -43 -50 0
-16 -29 -36 -39 0
-16 -29 -36 -43 0
-16 -29 -36 -50 0
-16 -29 -39 -43 0
-16 -29 -39 -50 0
-16 -29 -43 -50 0
-16 -36 -39 -43 0
-16 -36 -39 -50 0
-16 -36 -43 -50 0
-16 -39 -43 -50 0
-24 -29 -36 -39 0
-24 -29 -36 -43 0
-24 -29 -36 -50 0
-24 -29 -39 -43 0
-24 -29 -39 -50 0
-24 -29 -43 -50 0
-24 -36 -39 -43 0
-24 -36 -39 -50 0
-24 -36 -43 -50 0
-24 -39 -43 -50 0
-29 -36 -39 -43 0
-29 -36 -39 -50 0
-29 -36 -43 -50 0
-29 -39 -43 -50 0
-36 -39 -43 -50 0
-1 -8 -15 -20 0
-1 -8 -15 -26 0
-1 -8 -15 -36 0
-1 -8 -15 -42 0
-1 -8 -15 -47 0
-1 -8 -15 -51 0
-1 -8 -20 -26 0
-1 -8 -20 -36 0
-1 -8 -20 -42 0
-1 -8 -20 -47 0
-1 -8 -20 -51 0
-1 -8 -26 -36 0
-1 -8 -26 -42 0
-1 -8 -26 -47 0
-1 -8 -26 -51 0
-1 -8 -36 -42 0
-1 -8 -36 -47 0
-1 -8 -36 -51 0
-1 -8 -42 -47 0
-1 -8 -42 -51 0
-1 -8 -47 -51 0
-1 -15 -20 -26 0
-1 -15 -20 -36 0
-1 -15 -20 -42 0
-1 -15 -20 -47 0
-1 -15 -20 -51 0
-1 -15 -26 -36 0
-1 -15 -26 -42 0
-1 -15 -26 -47 0
-1 -15 -26 -51 0
-1 -15 -36 -42 0
-1 -15 -36 -47 0
-1 -15 -36 -51 0
-1 -15 -42 -47 0
-1 -15 -42 -51 0
-1 -15 -47 -51 0
-1 -20 -26 -36 0
-1 -20 -26 -42 0
-1 -20 -26 -47 0
-1 -20 -26 -51 0
-1 -20 -36 -42 0
-1 -20 -36 -47 0
-1 -20 -36 -51 0
-1 -20 -42 -47 0
-1 -20 -42 -51 0
-1 -20 -47 -51 0
-1 -26 -36 -42 0
-1 -26 -36 -47 0
-1 -26 -36 -51 0
-1 -26 -42 -47 0
-1 -26 -42 -51 0
-1 -26 -47 -51 0
-1 -36 -42 -47 0
-1 -36 -42 -51 0
-1 -36 -47 -51 0
-1 -42 -47 -51 0
-8 -15 -20 -26 0
-8 -15 -20 -36 0
-8 -15 -20 -42 0
-8 -15 -20 -47 0
-8 -15 -20 -51 0
-8 -15 -26 -36 0
-8 -15 -26 -42 0
-8 -15 -26 -47 0
-8 -15 -26 -51 0
-8 -15 -36 -42 0
-8 -15 -36 -47 0
-8 -15 -36 -51 0
-8 -15 -42 -47 0
-8 -15 -42 -51 0
-8 -15 -47 -51 0
-8 -20 -26 -36 0
-8 -20 -26 -42 0
-8 -20 -26 -47 0
-8 -20 -26 -51 0
-8 -20 -36 -42 0
-8 -20 -36 -47 0
-8 -20 -36 -51 0
-8 -20 -42 -47 0
-8 -20 -42 -51 0
-8 -20 -47 -51 0
-8 -26 -36 -42 0
-8 -26 -36 -47 0
-8 -26 -36 -51 0
-8 -26 -42 -47 0
-8 -26 -42 -51 0
-8 -26 -47 -51 0
-8 -36 -42 -47 0
-8 -36 -42 -51 0
-8 -36 -47 -51 0
-8 -42 -47 -51 0
-15 -20 -26 -36 0
-15 -20 -26 -42 0
-15 -20 -26 -47 0
-15 -20 -26 -51 0
-15 -20 -36 -42 0
-15 -20 -36 -47 0
-15 -20 -36 -51 0
-15 -20 -42 -47 0
-15 -20 -42 -51 0
-15 -20 -47 -51 0
-15 -26 -36 -42 0
-15 -26 -36 -47 0
-15 -26 -36 -51 0
-15 -26 -42 -47 0
-15 -26 -42 -51 0
-15 -26 -47 -51 0
-15 -36 -42 -47 0
-15 -36 -42 -51 0
-15 -36 -47 -51 0
-15 -42 -47 -51 0
-20 -26 -36 -42 0
-20 -26 -36 -47 0
-20 -26 -36 -51 0
-20 -26 -42 -47 0
-20 -26 -42 -51 0
-20 -26 -47 -51 0
-20 -36 -42 -47 0
-20 -36 -42 -51 0
-20 -36 -47 -51 0
-20 -42 -47 -51 0
-26 -36 -42 -47 0
-26 -36 -42 -51 0
-26 -36 -47 -51 0
-26 -42 -47 -51 0
-36 -42 -47 -51 0
-2 -9 -16 -21 0
-2 -9 -16 -27 0
-2 -9 -16 -31 0
-2 -9 -16 -37 0
-2 -9 -16 -48 0
-2 -9 -16 -52 0
-2 -9 -21 -27 0
-2 -9 -21 -31 0
-2 -9 -21 -37 0
-2 -9 -21 -48 0
-2 -9 -21 -52 0
-2 -9 -27 -31 0
-2 -9 -27 -37 0
-2 -9 -27 -48 0
-2 -9 -27 -52 0
-2 -9 -31 -37 0
-2 -9 -31 -48 0
-2 -9 -31 -52 0
-2 -9 -37 -48 0
-2 -9 -37 -52 0
-2 -9 -48 -52 0
-2 -16 -21 -27 0
-2 -16 -21 -31 0
-2 -16 -21 -37 0
-2 -16 -21 -48 0
-2 -16 -21 -52 0
-2 -16 -27 -31 0
-2 -16 -27 -37 0
-2 -16 -27 -48 0
-2 -16 -27 -52 0
-2 -16 -31 -37 0
-2 -16 -31 -48 0
-2 -16 -31 -52 0
-2 -16 -37 -48 0
-2 -16 -37 -52 0
-2 -16 -48 -52 0
-2 -21 -27 -31 0
-2 -21 -27 -37 0
-2 -21 -27 -48 0
-2 -21 -27 -52 0
-2 -21 -31 -37 0
-2 -21 -31 -48 0
-2 -21 -31 -52 0
-2 -21 -37 -48 0
-2 -21 -37 -52 0
-2 -21 -48 -52 0
-2 -27 -31 -37 0
-2 -27 -31 -48 0
-2 -27 -31 -52 0
-2 -27 -37 -48 0
-2 -27 -37 -52 0
-2 -27 -48 -52 0
-2 -31 -37 -48 0
-2 -31 -37 -52 0
-2 -31 -48 -52 0
-2 -37 -48 -52 0
-9 -16 -21 -27 0
-9 -16 -21 -31 0
-9 -16 -21 -37 0
-9 -16 -21 -48 0
-9 -16 -21 -52 0
-9 -16 -27 -31 0
-9 -16 -27 -37 0
-9 -16 -27 -48 0
-9 -16 -27 -52 0
-9 -16 -31 -37 0
-9 -16 -31 -48 0
-9 -16 -31 -52 0
-9 -16 -37 -48 0
-9 -16 -37 -52 0
-9 -16 -48 -52 0
-9 -21 -27 -31 0
-9 -21 -27 -37 0
-9 -21 -27 -48 0
-9 -21 -27 -52 0
-9 -21 -31 -37 0
-9 -21 -31 -48 0
-9 -21 -31 -52 0
-9 -21 -37 -48 0
-9 -21 -37 -52 0
-9 -21 -48 -52 0
-9 -27 -31 -37 0
-9 -27 -31 -48 0
-9 -27 -31 -52 0
-9 -27 -37 -48 0
-9 -27 -37 -52 0
-9 -27 -48 -52 0
-9 -31 -37 -48 0
-9 -31 -37 -52 0
-9 -31 -48 -52 0
-9 -37 -48 -52 0
-16 -21 -27 -31 0
-16 -21 -27 -37 0
-16 -21 -27 -48 0
-16 -21 -27 -52 0
-16 -21 -31 -37 0
-16 -21 -31 -48 0
-16 -21 -31 -52 0
-16 -21 -37 -48 0
-16 -21 -37 -52 0
-16 -21 -48 -52 0
-16 -27 -31 -37 0
-16 -27 -31 -48 0
-16 -27 -31 -52 0
-16 -27 -37 -48 0
-16 -27 -37 -52 0
-16 -27 -48 -52 0
-16 -31 -37 -48 0
-16 -31 -37 -52 0
-16 -31 -48 -52 0
-16 -37 -48 -52 0
-21 -27 -31 -37 0
-21 -27 -31 -48 0
-21 -27 -31 -52 0
-21 -27 -37 -48 0
-21 -27 -37 -52 0
-21 -27 -48 -52 0
-21 -31 -37 -48 0
-21 -31 -37 -52 0
-21 -31 -48 -52 0
-21 -37 -48 -52 0
-27 -31 -37 -48 0
-27 -31 -37 -52 0
-27 -31 -48 -52 0
-27 -37 -48 -52 0
-31 -37 -48 -52 0
-3 -10 -17 -22 0
-3 -10 -17 -28 0
-3 -10 -17 -32 0
-3 -10 -17 -38 0
-3 -10 -17 -43 0
-3 -10 -17 -53 0
-3 -10 -22 -28 0
-3 -10 -22 -32 0
-3 -10 -22 -38 0
-3 -10 -22 -43 0
-3 -10 -22 -53 0
-3 -10 -28 -32 0
-3 -10 -28 -38 0
-3 -10 -28 -43 0
-3 -10 -28 -53 0
-3 -10 -32 -38 0
-3 -10 -32 -43 0
-3 -10 -32 -53 0
-3 -10 -38 -43 0
-3 -10 -38 -53 0
-3 -10 -43 -53 0
-3 -17 -22 -28 0
-3 -17 -22 -32 0
-3 -17 -22 -38 0
-3 -17 -22 -43 0
-3 -17 -22 -53 0
-3 -17 -28 -32 0
-3 -17 -28 -38 0
-3 -17 -28 -43 0
-3 -17 -28 -53 0
-3 -17 -32 -38 0
-3 -17 -32 -43 0
-3 -17 -32 -53 0
-3 -17 -38 -43 0
-3 -17 -38 -53 0
-3 -17 -43 -53 0
-3 -22 -28 -32 0
-3 -22 -28 -38 0
-3 -22 -28 -43 0
-3 -22 -28 -53 0
-3 -22 -32 -38 0
-3 -22 -32 -43 0
-3 -22 -32 -53 0
-3 -22 -38 -43 0
-3 -22 -38 -53 0
-3 -22 -43 -53 0
-3 -28 -32 -38 0
-3 -28 -32 -43 0
-3 -28 -32 -53 0
-3 -28 -38 -43 0
-3 -28 -38 -53 0
-3 -28 -43 -53 0
-3 -32 -38 -43 0
-3 -32 -38 -53 0
-3 -32 -43 -53 0
-3 -38 -43 -53 0
-10 -17 -22 -28 0
-10 -17 -22 -32 0
-10 -17 -22 -38 0
-10 -17 -22 -43 0
-10 -17 -22 -53 0
-10 -17 -28 -32 0
-10 -17 -28 -38 0
-10 -17 -28 -43 0
-10 -17 -28 -53 0
-10 -17 -32 -38 0
-10 -17 -32 -43 0
-10 -17 -32 -53 0
-10 -17 -38 -43 0
-10 -17 -38 -53 0
-10 -17 -43 -53 0
-10 -22 -28 -32 0
-10 -22 -28 -38 0
-10 -22 -28 -43 0
-10 -22 -28 -53 0
-10 -22 -32 -38 0
-10 -22 -32 -43 0
-10 -22 -32 -53 0
-10 -22 -38 -43 0
-10 -22 -38 -53 0
-10 -22 -43 -53 0
-10 -28 -32 -38 0
-10 -28 -32 -43 0
-10 -28 -32 -53 0
-10 -28 -38 -43 0
-10 -28 -38 -53 0
-10 -28 -43 -53 0
-10 -32 -38 -43 0
-10 -32 -38 -53 0
-10 -32 -43 -53 0
-10 -38 -43 -53 0
-17 -22 -28 -32 0
-17 -22 -28 -38 0
-17 -22 -28 -43 0
-17 -22 -28 -53 0
-17 -22 -32 -38 0
-17 -22 -32 -43 0
-17 -22 -32 -53 0
-17 -22 -38 -43 0
-17 -22 -38 -53 0
-17 -22 -43 -53 0
-17 -28 -32 -38 0
-17 -28 -32 -43 0
-17 -28 -32 -53 0
-17 -28 -38 -43 0
-17 -28 -38 -53 0
-17 -28 -43 -53 0
-17 -32 -38 -43 0
-17 -32 -38 -53 0
-17 -32 -43 -53 0
-17 -38 -43 -53 0
-22 -28 -32 -38 0
-22 -28 -32 -43 0
-22 -28 -32 -53 0
-22 -28 -38 -43 0
-22 -28 -38 -53 0
-22 -28 -43 -53 0
-22 -32 -38 -43 0
-22 -32 -38 -53 0
-22 -32 -43 -53 0
-22 -38 -43 -53 0
-28 -32 -38 -43 0
-28 -32 -38 -53 0
-28 -32 -43 -53 0
-28 -38 -43 -53 0
-32 -38 -43 -53 0
-4 -11 -18 -23 0
-4 -11 -18 -29 0
-4 -11 -18 -33 0
-4 -11 -18 -39 0
-4 -11 -18 -44 0
-4 -11 -18 -54 0
-4 -11 -23 -29 0
-4 -11 -23 -33 0
-4 -11 -23 -39 0
-4 -11 -23 -44 0
-4 -11 -23 -54 0
-4 -11 -29 -33 0
-4 -11 -29 -39 0
-4 -11 -29 -44 0
-4 -11 -29 -54 0
-4 -11 -33 -39 0
-4 -11 -33 -44 0
-4 -11 -33 -54 0
-4 -11 -39 -44 0
-4 -11 -39 -54 0
-4 -11 -44 -54 0
-4 -18 -23 -29 0
-4 -18 -23 -33 0
-4 -18 -23 -39 0
-4 -18 -23 -44 0
-4 -18 -23 -54 0
-4 -18 -29 -33 0
-4 -18 -29 -39 0
-4 -18 -29 -44 0
-4 -18 -29 -54 0
-4 -18 -33 -39 0
-4 -18 -33 -44 0
-4 -18 -33 -54 0
-4 -18 -39 -44 0
-4 -18 -39 -54 0
-4 -18 -44 -54 0
-4 -23 -29 -33 0
-4 -23 -29 -39 0
-4 -23 -29 -44 0
-4 -23 -29 -54 0
-4 -23 -33 -39 0
-4 -23 -33 -44 0
-4 -23 -33 -54 0
-4 -23 -39 -44 0
-4 -23 -39 -54 0
-4 -23 -44 -54 0
-4 -29 -33 -39 0
-4 -29 -33 -44 0
-4 -29 -33 -54 0
-4 -29 -39 -44 0
-4 -29 -39 -54 0
-4 -29 -44 -54 0
-4 -33 -39 -44 0
-4 -33 -39 -54 0
-4 -33 -44 -54 0
-4 -39 -44 -54 0
-11 -18 -23 -29 0
-11 -18 -23 -33 0
-11 -18 -23 -39 0
-11 -18 -23 -44 0
-11 -18 -23 -54 0
-11 -18 -29 -33 0
-11 -18 -29 -39 0
-11 -18 -29 -44 0
-11 -18 -29 -54 0
-11 -18 -33 -39 0
-11 -18 -33 -44 0
-11 -18 -33 -54 0
-11 -18 -39 -44 0
-11 -18 -39 -54 0
-11 -18 -44 -54 0
-11 -23 -29 -33 0
-11 -23 -29 -39 0
-11 -23 -29 -44 0
-11 -23 -29 -54 0
-11 -23 -33 -39 0
-11 -23 -33 -44 0
-11 -23 -33 -54 0
-11 -23 -39 -44 0
-11 -23 -39 -54 0
-11 -23 -44 -54 0
-11 -29 -33 -39 0
-11 -29 -33 -44 0
-11 -29 -33 -54 0
-11 -29 -39 -44 0
-11 -29 -39 -54 0
-11 -29 -44 -54 0
-11 -33 -39 -44 0
-11 -33 -39 -54 0
-11 -33 -44 -54 0
-11 -39 -44 -54 0
-18 -23 -29 -33 0
-18 -23 -29 -39 0
-18 -23 -29 -44 0
-18 -23 -29 -54 0
-18 -23 -33 -39 0
-18 -23 -33 -44 0
-18 -23 -33 -54 0
-18 -23 -39 -44 0
-18 -23 -39 -54 0
-18 -23 -44 -54 0
-18 -29 -33 -39 0
-18 -29 -33 -44 0
-18 -29 -33 -54 0
-18 -29 -39 -44 0
-18 -29 -39 -54 0
-18 -29 -44 -54 0
-18 -33 -39 -44 0
-18 -33 -39 -54 0
-18 -33 -44 -54 0
-18 -39 -44 -54 0
-23 -29 -33 -39 0
-23 -29 -33 -44 0
-23 -29 -33 -54 0
-23 -29 -39 -44 0
-23 -29 -39 -54 0
-23 -29 -44 -54 0
-23 -33 -39 -44 0
-23 -33 -39 -54 0
-23 -33 -44 -54 0
-23 -39 -44 -54 0
-29 -33 -39 -44 0
-29 -33 -39 -54 0
-29 -33 -44 -54 0
-29 -39 -44 -54 0
-33 -39 -44 -54 0
-5 -12 -13 -24 0
-5 -12 -13 -30 0
-5 -12 -13 -34 0
-5 -12 -13 -40 0
-5 -12 -13 -45 0
-5 -12 -13 -49 0
-5 -12 -24 -30 0
-5 -12 -24 -34 0
-5 -12 -24 -40 0
-5 -12 -24 -45 0
-5 -12 -24 -49 0
-5 -12 -30 -34 0
-5 -12 -30 -40 0
-5 -12 -30 -45 0
-5 -12 -30 -49 0
-5 -12 -34 -40 0
-5 -12 -34 -45 0
-5 -12 -34 -49 0
-5 -12 -40 -45 0
-5 -12 -40 -49 0
-5 -12 -45 -49 0
-5 -13 -24 -30 0
-5 -13 -24 -34 0
-5 -13 -24 -40 0
-5 -13 -24 -45 0
-5 -13 -24 -49 0
-5 -13 -30 -34 0
-5 -13 -30 -40 0
-5 -13 -30 -45 0
-5 -13 -30 -49 0
-5 -13 -34 -40 0
-5 -13 -34 -45 0
-5 -13 -34 -49 0
-5 -13 -40 -45 0
-5 -13 -40 -49 0
-5 -13 -45 -49 0
-5 -24 -30 -34 0
-5 -24 -30 -40 0
-5 -24 -30 -45 0
-5 -24 -30 -49 0
-5 -24 -34 -40 0
-5 -24 -34 -45 0
-5 -24 -34 -49 0
-5 -24 -40 -45 0
-5 -24 -40 -49 0
-5 -24 -45 -49 0
-5 -30 -34 -40 0
-5 -30 -34 -45 0
-5 -30 -34 -49 0
-5 -30 -40 -45 0
-5 -30 -40 -49 0
-5 -30 -45 -49 0
-5 -34 -40 -45 0
-5 -34 -40 -49 0
-5 -34 -45 -49 0
-5 -40 -45 -49 0
-12 -13 -24 -30 0
-12 -13 -24 -34 0
-12 -13 -24 -40 0
-12 -13 -24 -45 0
-12 -13 -24 -49 0
-12 -13 -30 -34 0
-12 -13 -30 -40 0
-12 -13 -30 -45 0
-12 -13 -30 -49 0
-12 -13 -34 -40 0
-12 -13 -34 -45 0
-12 -13 -34 -49 0
-12 -13 -40 -45 0
-12 -13 -40 -49 0
-12 -13 -45 -49 0
-12 -24 -30 -34 0
-12 -24 -30 -40 0
-12 -24 -30 -45 0
-12 -24 -30 -49 0
-12 -24 -34 -40 0
-12 -24 -34 -45 0
-12 -24 -34 -49 0
-12 -24 -40 -45 0
-12 -24 -40 -49 0
-12 -24 -45 -49 0
-12 -30 -34 -40 0
-12 -30 -34 -45 0
-12 -30 -34 -49 0
-12 -30 -40 -45 0
-12 -30 -40 -49 0
-12 -30 -45 -49 0
-12 -34 -40 -45 0
-12 -34 -40 -49 0
-12 -34 -45 -49 0
-12 -40 -45 -49 0
-13 -24 -30 -34 0
-13 -24 -30 -40 0
-13 -24 -30 -45 0
-13 -24 -30 -49 0
-13 -24 -34 -40 0
-13 -24 -34 -45 0
-13 -24 -34 -49 0
-13 -24 -40 -45 0
-13 -24 -40 -49 0
-13 -24 -45 -49 0
-13 -30 -34 -40 0
-13 -30 -34 -45 0
-13 -30 -34 -49 0
-13 -30 -40 -45 0
-13 -30 -40 -49 0
-13 -30 -45 -49 0
-13 -34 -40 -45 0
-13 -34 -40 -49 0
-13 -34 -45 -49 0
-13 -40 -45 -49 0
-24 -30 -34 -40 0
-24 -30 -34 -45 0
-24 -30 -34 -49 0
-24 -30 -40 -45 0
-24 -30 -40 -49 0
-24 -30 -45 -49 0
-24 -34 -40 -45 0
-24 -34 -40 -49 0
-24 -34 -45 -49 0
-24 -40 -45 -49 0
-30 -34 -40 -45 0
-30 -34 -40 -49 0
-30 -34 -45 -49 0
-30 -40 -45 -49 0
-34 -40 -45 -49 0
-6 -7 -14 -19 0
-6 -7 -14 -25 0
-6 -7 -14 -35 0
-6 -7 -14 -41 0
-6 -7 -14 -46 0
-6 -7 -14 -50 0
-6 -7 -19 -25 0
-6 -7 -19 -35 0
-6 -7 -19 -41 0
-6 -7 -19 -46 0
-6 -7 -19 -50 0
-6 -7 -25 -35 0
-6 -7 -25 -41 0
-6 -7 -25 -46 0
-6 -7 -25 -50 0
-6 -7 -35 -41 0
-6 -7 -35 -46 0
-6 -7 -35 -50 0
-6 -7 -41 -46 0
-6 -7 -41 -50 0
-6 -7 -46 -50 0
-6 -14 -19 -25 0
-6 -14 -19 -35 0
-6 -14 -19 -41 0
-6 -14 -19 -46 0
-6 -14 -19 -50 0
-6 -14 -25 -35 0
-6 -14 -25 -41 0
-6 -14 -25 -46 0
-6 -14 -25 -50 0
-6 -14 -35 -41 0
-6 -14 -35 -46 0
-6 -14 -35 -50 0
-6 -14 -41 -46 0
-6 -14 -41 -50 0
-6 -14 -46 -50 0
-6 -19 -25 -35 0
-6 -19 -25 -41 0
-6 -19 -25 -46 0
-6 -19 -25 -50 0
-6 -19 -35 -41 0
-6 -19 -35 -46 0
-6 -19 -35 -50 0
-6 -19 -41 -46 0
-6 -19 -41 -50 0
-6 -19 -46 -50 0
-6 -25 -35 -41 0
-6 -25 -35 -46 0
-6 -25 -35 -50 0
-6 -25 -41 -46 0
-6 -25 -41 -50 0
-6 -25 -46 -50 0
-6 -35 -41 -46 0
-6 -35 -41 -50 0
-6 -35 -46 -50 0
-6 -41 -46 -50 0
-7 -14 -19 -25 0
-7 -14 -19 -35 0
-7 -14 -19 -41 0
-7 -14 -19 -46 0
-7 -14 -19 -50 0
-7 -14 -25 -35 0
-7 -14 -25 -41 0
-7 -14 -25 -46 0
-7 -14 -25 -50 0
-7 -14 -35 -41 0
-7 -14 -35 -46 0
-7 -14 -35 -50 0
-7 -14 -41 -46 0
-7 -14 -41 -50 0
-7 -14 -46 -50 0
-7 -19 -25 -35 0
-7 -19 -25 -41 0
-7 -19 -25 -46 0
-7 -19 -25 -50 0
-7 -19 -35 -41 0
-7 -19 -35 -46 0
-7 -19 -35 -50 0
-7 -19 -41 -46 0
-7 -19 -41 -50 0
-7 -19 -46 -50 0
-7 -25 -35 -41 0
-7 -25 -35 -46 0
-7 -25 -35 -50 0
-7 -25 -41 -46 0
-7 -25 -41 -50 0
-7 -25 -46 -50 0
-7 -35 -41 -46 0
-7 -35 -41 -50 0
-7 -35 -46 -50 0
-7 -41 -46 -50 0
-14 -19 -25 -35 0
-14 -19 -25 -41 0
-14 -19 -25 -46 0
-14 -19 -25 -50 0
-14 -19 -35 -41 0
-14 -19 -35 -46 0
-14 -19 -35 -50 0
-14 -19 -41 -46 0
-14 -19 -41 -50 0
-14 -19 -46 -50 0
-14 -25 -35 -41 0
-14 -25 -35 -46 0
-14 -25 -35 -50 0
-14 -25 -41 -46 0
-14 -25 -41 -50 0
-14 -25 -46 -50 0
-14 -35 -41 -46 0
-14 -35 -41 -50 0
-14 -35 -46 -50 0
-14 -41 -46 -50 0
-19 -25 -35 -41 0
-19 -25 -35 -46 0
-19 -25 -35 -50 0
-19 -25 -41 -46 0
-19 -25 -41 -50 0
-19 -25 -46 -50 0
-19 -35 -41 -46 0
-19 -35 -41 -50 0
-19 -35 -46 -50 0
-19 -41 -46 -50 0
-25 -35 -41 -46 0
-25 -35 -41 -50 0
-25 -35 -46 -50 0
-25 -41 -46 -50 0
-35 -41 -46 -50 0
-1 -12 -13 -23 0
-1 -12 -13 -28 0
-1 -12 -13 -34 0
-1 -12 -13 -41 0
-1 -12 -13 -44 0
-1 -12 -13 -50 0
-1 -12 -23 -28 0
-1 -12 -23 -34 0
-1 -12 -23 -41 0
-1 -12 -23 -44 0
-1 -12 -23 -50 0
-1 -12 -28 -34 0
-1 -12 -28 -41 0
-1 -12 -28 -44 0
-1 -12 -28 -50 0
-1 -12 -34 -41 0
-1 -12 -34 -44 0
-1 -12 -34 -50 0
-1 -12 -41 -44 0
-1 -12 -41 -50 0
-1 -12 -44 -50 0
-1 -13 -23 -28 0
-1 -13 -23 -34 0
-1 -13 -23 -41 0
-1 -13 -23 -44 0
-1 -13 -23 -50 0
-1 -13 -28 -34 0
-1 -13 -28 -41 0
-1 -13 -28 -44 0
-1 -13 -28 -50 0
-1 -13 -34 -41 0
-1 -13 -34 -44 0
-1 -13 -34 -50 0
-1 -13 -41 -44 0
-1 -13 -41 -50 0
-1 -13 -44 -50 0
-1 -23 -28 -34 0
-1 -23 -28 -41 0
-1 -23 -28 -44 0
-1 -23 -28 -50 0
-1 -23 -34 -41 0
-1 -23 -34 -44 0
-1 -23 -34 -50 0
-1 -23 -41 -44 0
-1 -23 -41 -50 0
-1 -23 -44 -50 0
-1 -28 -34 -41 0
-1 -28 -34 -44 0
-1 -28 -34 -50 0
-1 -28 -41 -44 0
-1 -28 -41 -50 0
-1 -28 -44 -50 0
-1 -34 -41 -44 0
-1 -34 -41 -50 0
-1 -34 -44 -50 0
-1 -41 -44 -50 0
-12 -13 -23 -28 0
-12 -13 -23 -34 0
-12 -13 -23 -41 0
-12 -13 -23 -44 0
-12 -13 -23 -50 0
-12 -13 -28 -34 0
-12 -13 -28 -41 0
-12 -13 -28 -44 0
-12 -13 -28 -50 0
-12 -13 -34 -41 0
-12 -13 -34 -44 0
-12 -13 -34 -50 0
-12 -13 -41 -44 0
-12 -13 -41 -50 0
-12 -13 -44 -50 0
-12 -23 -28 -34 0
-12 -23 -28 -41 0
-12 -23 -28 -44 0
-12 -23 -28 -50 0
-12 -23 -34 -41 0
-12 -23 -34 -44 0
-12 -23 -34 -50 0
-12 -23 -41 -44 0
-12 -23 -41 -50 0
-12 -23 -44 -50 0
-12 -28 -34 -41 0
-12 -28 -34 -44 0
-12 -28 -34 -50 0
-12 -28 -41 -44 0
-12 -28 -41 -50 0
-12 -28 -44 -50 0
-12 -34 -41 -44 0
-12 -34 -41 -50 0
-12 -34 -44 -50 0
-12 -41 -44 -50 0
-13 -23 -28 -34 0
-13 -23 -28 -41 0
-13 -23 -28 -44 0
-13 -23 -28 -50 0
-13 -23 -34 -41 0
-13 -23 -34 -44 0
-13 -23 -34 -50 0
-13 -23 -41 -44 0
-13 -23 -41 -50 0
-13 -23 -44 -50 0
-13 -28 -34 -41 0
-13 -28 -34 -44 0
-13 -28 -34 -50 0
-13 -28 -41 -44 0
-13 -28 -41 -50 0
-13 -28 -44 -50 0
-13 -34 -41 -44 0
-13 -34 -41 -50 0
-13 -34 -44 -50 0
-13 -41 -44 -50 0
-23 -28 -34 -41 0
-23 -28 -34 -44 0
-23 -28 -34 -50 0
-23 -28 -41 -44 0
-23 -28 -41 -50 0
-23 -28 -44 -50 0
-23 -34 -41 -44 0
-23 -34 -41 -50 0
-23 -34 -44 -50 0
-23 -41 -44 -50 0
-28 -34 -41 -44 0
-28 -34 -41 -50 0
-28 -34 -44 -50 0
-28 -41 -44 -50 0
-34 -41 -44 -50 0
-2 -7 -14 -24 0
-2 -7 -14 -29 0
-2 -7 -14 -35 0
-2 -7 -14 -42 0
-2 -7 -14 -45 0
-2 -7 -14 -51 0
-2 -7 -24 -29 0
-2 -7 -24 -35 0
-2 -7 -24 -42 0
-2 -7 -24 -45 0
-2 -7 -24 -51 0
-2 -7 -29 -35 0
-2 -7 -29 -42 0
-2 -7 -29 -45 0
-2 -7 -29 -51 0
-2 -7 -35 -42 0
-2 -7 -35 -45 0
-2 -7 -35 -51 0
-2 -7 -42 -45 0
-2 -7 -42 -51 0
-2 -7 -45 -51 0
-2 -14 -24 -29 0
-2 -14 -24 -35 0
-2 -14 -24 -42 0
-2 -14 -24 -45 0
-2 -14 -24 -51 0
-2 -14 -29 -35 0
-2 -14 -29 -42 0
-2 -14 -29 -45 0
-2 -14 -29 -51 0
-2 -14 -35 -42 0
-2 -14 -35 -45 0
-2 -14 -35 -51 0
-2 -14 -42 -45 0
-2 -14 -42 -51 0
-2 -14 -45 -51 0
-2 -24 -29 -35 0
-2 -24 -29 -42 0
-2 -24 -29 -45 0
-2 -24 -29 -51 0
-2 -24 -35 -42 0
-2 -24 -35 -45 0
-2 -24 -35 -51 0
-2 -24 -42 -45 0
-2 -24 -42 -51 0
-2 -24 -45 -51 0
-2 -29 -35 -42 0
-2 -29 -35 -45 0
-2 -29 -35 -51 0
-2 -29 -42 -45 0
-2 -29 -42 -51 0
-2 -29 -45 -51 0
-2 -35 -42 -45 0
-2 -35 -42 -51 0
-2 -35 -45 -51 0
-2 -42 -45 -51 0
-7 -14 -24 -29 0
-7 -14 -24 -35 0
-7 -14 -24 -42 0
-7 -14 -24 -45 0
-7 -14 -24 -51 0
-7 -14 -29 -35 0
-7 -14 -29 -42 0
-7 -14 -29 -45 0
-7 -14 -29 -51 0
-7 -14 -35 -42 0
-7 -14 -35 -45 0
-7 -14 -35 -51 0
-7 -14 -42 -45 0
-7 -14 -42 -51 0
-7 -14 -45 -51 0
-7 -24 -29 -35 0
-7 -24 -29 -42 0
-7 -24 -29 -45 0
-7 -24 -29 -51 0
-7 -24 -35 -42 0
-7 -24 -35 -45 0
-7 -24 -35 -51 0
-7 -24 -42 -45 0
-7 -24 -42 -51 0
-7 -24 -45 -51 0
-7 -29 -35 -42 0
-7 -29 -35 -45 0
-7 -29 -35 -51 0
-7 -29 -42 -45 0
-7 -29 -42 -51 0
-7 -29 -45 -51 0
-7 -35 -42 -45 0
-7 -35 -42 -51 0
-7 -35 -45 -51 0
-7 -42 -45 -51 0
-14 -24 -29 -35 0
-14 -24 -29 -42 0
-14 -24 -29 -45 0
-14 -24 -29 -51 0
-14 -24 -35 -42 0
-14 -24 -35 -45 0
-14 -24 -35 -51 0
-14 -24 -42 -45 0
-14 -24 -42 -51 0
-14 -24 -45 -51 0
-14 -29 -35 -42 0
-14 -29 -35 -45 0
-14 -29 -35 -51 0
-14 -29 -42 -45 0
-14 -29 -42 -51 0
-14 -29 -45 -51 0
-14 -35 -42 -45 0
-14 -35 -42 -51 0
-14 -35 -45 -51 0
-14 -42 -45 -51 0
-24 -29 -35 -42 0
-24 -29 -35 -45 0
-24 -29 -35 -51 0
-24 -29 -42 -45 0
-24 -29 -42 -51 0
-24 -29 -45 -51 0
-24 -35 -42 -45 0
-24 -35 -42 -51 0
-24 -35 -45 -51 0
-24 -42 -45 -51 0
-29 -35 -42 -45 0
-29 -35 -42 -51 0
-29 -35 -45 -51 0
-29 -42 -45 -51 0
-35 -42 -45 -51 0
-3 -8 -15 -19 0
-3 -8 -15 -30 0
-3 -8 -15 -36 0
-3 -8 -15 -37 0
-3 -8 -15 -46 0
-3 -8 -15 -52 0
-3 -8 -19 -30 0
-3 -8 -19 -36 0
-3 -8 -19 -37 0
-3 -8 -19 -46 0
-3 -8 -19 -52 0
-3 -8 -30 -36 0
-3 -8 -30 -37 0
-3 -8 -30 -46 0
-3 -8 -30 -52 0
-3 -8 -36 -37 0
-3 -8 -36 -46 0
-3 -8 -36 -52 0
-3 -8 -37 -46 0
-3 -8 -37 -52 0
-3 -8 -46 -52 0
-3 -15 -19 -30 0
-3 -15 -19 -36 0
-3 -15 -19 -37 0
-3 -15 -19 -46 0
-3 -15 -19 -52 0
-3 -15 -30 -36 0
-3 -15 -30 -37 0
-3 -15 -30 -46 0
-3 -15 -30 -52 0
-3 -15 -36 -37 0
-3 -15 -36 -46 0
-3 -15 -36 -52 0
-3 -15 -37 -46 0
-3 -15 -37 -52 0
-3 -15 -46 -52 0
-3 -19 -30 -36 0
-3 -19 -30 -37 0
-3 -19 -30 -46 0
-3 -19 -30 -52 0
-3 -19 -36 -37 0
-3 -19 -36 -46 0
-3 -19 -36 -52 0
-3 -19 -37 -46 0
-3 -19 -37 -52 0
-3 -19 -46 -52 0
-3 -30 -36 -37 0
-3 -30 -36 -46 0
-3 -30 -36 -52 0
-3 -30 -37 -46 0
-3 -30 -37 -52 0
-3 -30 -46 -52 0
-3 -36 -37 -46 0
-3 -36 -37 -52 0
-3 -36 -46 -52 0
-3 -37 -46 -52 0
-8 -15 -19 -30 0
-8 -15 -19 -36 0
-8 -15 -19 -37 0
-8 -15 -19 -46 0
-8 -15 -19 -52 0
-8 -15 -30 -36 0
-8 -15 -30 -37 0
-8 -15 -30 -46 0
-8 -15 -30 -52 0
-8 -15 -36 -37 0
-8 -15 -36 -46 0
-8 -15 -36 -52 0
-8 -15 -37 -46 0
-8 -15 -37 -52 0
-8 -15 -46 -52 0
-8 -19 -30 -36 0
-8 -19 -30 -37 0
-8 -19 -30 -46 0
-8 -19 -30 -52 0
-8 -19 -36 -37 0
-8 -19 -36 -46 0
-8 -19 -36 -52 0
-8 -19 -37 -46 0
-8 -19 -37 -52 0
-8 -19 -46 -52 0
-8 -30 -36 -37 0
-8 -30 -36 -46 0
-8 -30 -36 -52 0
-8 -30 -37 -46 0
-8 -30 -37 -52 0
-8 -30 -46 -52 0
-8 -36 -37 -46 0
-8 -36 -37 -52 0
-8 -36 -46 -52 0
-8 -37 -46 -52 0
-15 -19 -30 -36 0
-15 -19 -30 -37 0
-15 -19 -30 -46 0
-15 -19 -30 -52 0
-15 -19 -36 -37 0
-15 -19 -36 -46 0
-15 -19 -36 -52 0
-15 -19 -37 -46 0
-15 -19 -37 -52 0
-15 -19 -46 -52 0
-15 -30 -36 -37 0
-15 -30 -36 -46 0
-15 -30 -36 -52 0
-15 -30 -37 -46 0
-15 -30 -37 -52 0
-15 -30 -46 -52 0
-15 -36 -37 -46 0
-15 -36 -37 -52 0
-15 -36 -46 -52 0
-15 -37 -46 -52 0
-19 -30 -36 -37 0
-19 -30 -36 -46 0
-19 -30 -36 -52 0
-19 -30 -37 -46 0
-19 -30 -37 -52 0
-19 -30 -46 -52 0
-19 -36 -37 -46 0
-19 -36 -37 -52 0
-19 -36 -46 -52 0
-19 -37 -46 -52 0
-30 -36 -37 -46 0
-30 -36 -37 -52 0
-30 -36 -46 -52 0
-30 -37 -46 -52 0
-36 -37 -46 -52 0
-4 -9 -16 -20 0
-4 -9 -16 -25 0
-4 -9 -16 -31 0
-4 -9 -16 -38 0
-4 -9 -16 -47 0
-4 -9 -16 -53 0
-4 -9 -20 -25 0
-4 -9 -20 -31 0
-4 -9 -20 -38 0
-4 -9 -20 -47 0
-4 -9 -20 -53 0
-4 -9 -25 -31 0
-4 -9 -25 -38 0
-4 -9 -25 -47 0
-4 -9 -25 -53 0
-4 -9 -31 -38 0
-4 -9 -31 -47 0
-4 -9 -31 -53 0
-4 -9 -38 -47 0
-4 -9 -38 -53 0
-4 -9 -47 -53 0
-4 -16 -20 -25 0
-4 -16 -20 -31 0
-4 -16 -20 -38 0
-4 -16 -20 -47 0
-4 -16 -20 -53 0
-4 -16 -25 -31 0
-4 -16 -25 -38 0
-4 -16 -25 -47 0
-4 -16 -25 -53 0
-4 -16 -31 -38 0
-4 -16 -31 -47 0
-4 -16 -31 -53 0
-4 -16 -38 -47 0
-4 -16 -38 -53 0
-4 -16 -47 -53 0
-4 -20 -25 -31 0
-4 -20 -25 -38 0
-4 -20 -25 -47 0
-4 -20 -25 -53 0
-4 -20 -31 -38 0
-4 -20 -31 -47 0
-4 -20 -31 -53 0
-4 -20 -38 -47 0
-4 -20 -38 -53 0
-4 -20 -47 -53 0
-4 -25 -31 -38 0
-4 -25 -31 -47 0
-4 -25 -31 -53 0
-4 -25 -38 -47 0
-4 -25 -38 -53 0
-4 -25 -47 -53 0
-4 -31 -38 -47 0
-4 -31 -38 -53 0
-4 -31 -47 -53 0
-4 -38 -47 -53 0
-9 -16 -20 -25 0
-9 -16 -20 -31 0
-9 -16 -20 -38 0
-9 -16 -20 -47 0
-9 -16 -20 -53 0
-9 -16 -25 -31 0
-9 -16 -25 -38 0
-9 -16 -25 -47 0
-9 -16 -25 -53 0
-9 -16 -31 -38 0
-9 -16 -31 -47 0
-9 -16 -31 -53 0
-9 -16 -38 -47 0
-9 -16 -38 -53 0
-9 -16 -47 -53 0
-9 -20 -25 -31 0
-9 -20 -25 -38 0
-9 -20 -25 -47 0
-9 -20 -25 -53 0
-9 -20 -31 -38 0
-9 -20 -31 -47 0
-9 -20 -31 -53 0
-9 -20 -38 -47 0
-9 -20 -38 -53 0
-9 -20 -47 -53 0
-9 -25 -31 -38 0
-9 -25 -31 -47 0
-9 -25 -31 -53 0
-9 -25 -38 -47 0
-9 -25 -38 -53 0
-9 -25 -47 -53 0
-9 -31 -38 -47 0
-9 -31 -38 -53 0
-9 -31 -47 -53 0
-9 -38 -47 -53 0
-16 -20 -25 -31 0
-16 -20 -25 -38 0
-16 -20 -25 -47 0
-16 -20 -25 -53 0
-16 -20 -31 -38 0
-16 -20 -31 -47 0
-16 -20 -31 -53 0
-16 -20 -38 -47 0
-16 -20 -38 -53 0
-16 -20 -47 -53 0
-16 -25 -31 -38 0
-16 -25 -31 -47 0
-16 -25 -31 -53 0
-16 -25 -38 -47 0
-16 -25 -38 -53 0
-16 -25 -47 -53 0
-16 -31 -38 -47 0
-16 -31 -38 -53 0
-16 -31 -47 -53 0
-16 -38 -47 -53 0
-20 -25 -31 -38 0
-20 -25 -31 -47 0
-20 -25 -31 -53 0
-20 -25 -38 -47 0
-20 -25 -38 -53 0
-20 -25 -47 -53 0
-20 -31 -38 -47 0
-20 -31 -38 -53 0
-20 -31 -47 -53 0
-20 -38 -47 -53 0
-25 -31 -38 -47 0
-25 -31 -38 -53 0
-25 -31 -47 -53 0
-25 -38 -47 -53 0
-31 -38 -47 -53 0
-5 -10 -17 -21 0
-5 -10 -17 -26 0
-5 -10 -17 -32 0
-5 -10 -17 -39 0
-5 -10 -17 -48 0
-5 -10 -17 -54 0
-5 -10 -21 -26 0
-5 -10 -21 -32 0
-5 -10 -21 -39 0
-5 -10 -21 -48 0
-5 -10 -21 -54 0
-5 -10 -26 -32 0
-5 -10 -26 -39 0
-5 -10 -26 -48 0
-5 -10 -26 -54 0
-5 -10 -32 -39 0
-5 -10 -32 -48 0
-5 -10 -32 -54 0
-5 -10 -39 -48 0
-5 -10 -39 -54 0
-5 -10 -48 -54 0
-5 -17 -21 -26 0
-5 -17 -21 -32 0
-5 -17 -21 -39 0
-5 -17 -21 -48 0
-5 -17 -21 -54 0
-5 -17 -26 -32 0
-5 -17 -26 -39 0
-5 -17 -26 -48 0
-5 -17 -26 -54 0
-5 -17 -32 -39 0
-5 -17 -32 -48 0
-5 -17 -32 -54 0
-5 -17 -39 -48 0
-5 -17 -39 -54 0
-5 -17 -48 -54 0
-5 -21 -26 -32 0
-5 -21 -26 -39 0
-5 -21 -26 -48 0
-5 -21 -26 -54 0
-5 -21 -32 -39 0
-5 -21 -32 -48 0
-5 -21 -32 -54 0
-5 -21 -39 -48 0
-5 -21 -39 -54 0
-5 -21 -48 -54 0
-5 -26 -32 -39 0
-5 -26 -32 -48 0
-5 -26 -32 -54 0
-5 -26 -39 -48 0
-5 -26 -39 -54 0
-5 -26 -48 -54 0
-5 -32 -39 -48 0
-5 -32 -39 -54 0
-5 -32 -48 -54 0
-5 -39 -48 -54 0
-10 -17 -21 -26 0
-10 -17 -21 -32 0
-10 -17 -21 -39 0
-10 -17 -21 -48 0
-10 -17 -21 -54 0
-10 -17 -26 -32 0
-10 -17 -26 -39 0
-10 -17 -26 -48 0
-10 -17 -26 -54 0
-10 -17 -32 -39 0
-10 -17 -32 -48 0
-10 -17 -32 -54 0
-10 -17 -39 -48 0
-10 -17 -39 -54 0
-10 -17 -48 -54 0
-10 -21 -26 -32 0
-10 -21 -26 -39 0
-10 -21 -26 -48 0
-10 -21 -26 -54 0
-10 -21 -32 -39 0
-10 -21 -32 -48 0
-10 -21 -32 -54 0
-10 -21 -39 -48 0
-10 -21 -39 -54 0
-10 -21 -48 -54 0
-10 -26 -32 -39 0
-10 -26 -32 -48 0
-10 -26 -32 -54 0
-10 -26 -39 -48 0
-10 -26 -39 -54 0
-10 -26 -48 -54 0
-10 -32 -39 -48 0
-10 -32 -39 -54 0
-10 -32 -48 -54 0
-10 -39 -48 -54 0
-17 -21 -26 -32 0
-17 -21 -26 -39 0
-17 -21 -26 -48 0
-17 -21 -26 -54 0
-17 -21 -32 -39 0
-17 -21 -32 -48 0
-17 -21 -32 -54 0
-17 -21 -39 -48 0
-17 -21 -39 -54 0
-17 -21 -48 -54 0
-17 -26 -32 -39 0
-17 -26 -32 -48 0
-17 -26 -32 -54 0
-17 -26 -39 -48 0
-17 -26 -39 -54 0
-17 -26 -48 -54 0
-17 -32 -39 -48 0
-17 -32 -39 -54 0
-17 -32 -48 -54 0
-17 -39 -48 -54 0
-21 -26 -32 -39 0
-21 -26 -32 -48 0
-21 -26 -32 -54 0
-21 -26 -39 -48 0
-21 -26 -39 -54 0
-21 -26 -48 -54 0
-21 -32 -39 -48 0
-21 -32 -39 -54 0
-21 -32 -48 -54 0
-21 -39 -48 -54 0
-26 -32 -39 -48 0
-26 -32 -39 -54 0
-26 -32 -48 -54 0
-26 -39 -48 -54 0
-32 -39 -48 -54 0
-6 -11 -18 -22 0
-6 -11 -18 -27 0
-6 -11 -18 -33 0
-6 -11 -18 -40 0
-6 -11 -18 -43 0
-6 -11 -18 -49 0
-6 -11 -22 -27 0
-6 -11 -22 -33 0
-6 -11 -22 -40 0
-6 -11 -22 -43 0
-6 -11 -22 -49 0
-6 -11 -27 -33 0
-6 -11 -27 -40 0
-6 -11 -27 -43 0
-6 -11 -27 -49 0
-6 -11 -33 -40 0
-6 -11 -33 -43 0
-6 -11 -33 -49 0
-6 -11 -40 -43 0
-6 -11 -40 -49 0
-6 -11 -43 -49 0
-6 -18 -22 -27 0
-6 -18 -22 -33 0
-6 -18 -22 -40 0
-6 -18 -22 -43 0
-6 -18 -22 -49 0
-6 -18 -27 -33 0
-6 -18 -27 -40 0
-6 -18 -27 -43 0
-6 -18 -27 -49 0
-6 -18 -33 -40 0
-6 -18 -33 -43 0
-6 -18 -33 -49 0
-6 -18 -40 -43 0
-6 -18 -40 -49 0
-6 -18 -43 -49 0
-6 -22 -27 -33 0
-6 -22 -27 -40 0
-6 -22 -27 -43 0
-6 -22 -27 -49 0
-6 -22 -33 -40 0
-6 -22 -33 -43 0
-6 -22 -33 -49 0
-6 -22 -40 -43 0
-6 -22 -40 -49 0
-6 -22 -43 -49 0
-6 -27 -33 -40 0
-6 -27 -33 -43 0
-6 -27 -33 -49 0
-6 -27 -40 -43 0
-6 -27 -40 -49 0
-6 -27 -43 -49 0
-6 -33 -40 -43 0
-6 -33 -40 -49 0
-6 -33 -43 -49 0
-6 -40 -43 -49 0
-11 -18 -22 -27 0
-11 -18 -22 -33 0
-11 -18 -22 -40 0
-11 -18 -22 -43 0
-11 -18 -22 -49 0
-11 -18 -27 -33 0
-11 -18 -27 -40 0
-11 -18 -27 -43 0
-11 -18 -27 -49 0
-11 -18 -33 -40 0
-11 -18 -33 -43 0
-11 -18 -33 -49 0
-11 -18 -40 -43 0
-11 -18 -40 -49 0
-11 -18 -43 -49 0
-11 -22 -27 -33 0
-11 -22 -27 -40 0
-11 -22 -27 -43 0
-11 -22 -27 -49 0
-11 -22 -33 -40 0
-11 -22 -33 -43 0
-11 -22 -33 -49 0
-11 -22 -40 -43 0
-11 -22 -40 -49 0
-11 -22 -43 -49 0
-11 -27 -33 -40 0
-11 -27 -33 -43 0
-11 -27 -33 -49 0
-11 -27 -40 -43 0
-11 -27 -40 -49 0
-11 -27 -43 -49 0
-11 -33 -40 -43 0
-11 -33 -40 -49 0
-11 -33 -43 -49 0
-11 -40 -43 -49 0
-18 -22 -27 -33 0
-18 -22 -27 -40 0
-18 -22 -27 -43 0
-18 -22 -27 -49 0
-18 -22 -33 -40 0
-18 -22 -33 -43 0
-18 -22 -33 -49 0
-18 -22 -40 -43 0
-18 -22 -40 -49 0
-18 -22 -43 -49 0
-18 -27 -33 -40 0
-18 -27 -33 -43 0
-18 -27 -33 -49 0
-18 -27 -40 -43 0
-18 -27 -40 -49 0
-18 -27 -43 -49 0
-18 -33 -40 -43 0
-18 -33 -40 -49 0
-18 -33 -43 -49 0
-18 -40 -43 -49 0
-22 -27 -33 -40 0
-22 -27 -33 -43 0
-22 -27 -33 -49 0
-22 -27 -40 -43 0
-22 -27 -40 -49 0
-22 -27 -43 -49 0
-22 -33 -40 -43 0
-22 -33 -40 -49 0
-22 -33 -43 -49 0
-22 -40 -43 -49 0
-27 -33 -40 -43 0
-27 -33 -40 -49 0
-27 -33 -43 -49 0
-27 -40 -43 -49 0
-33 -40 -43 -49 0
-1 -11 -16 -24 0
-1 -11 -16 -26 0
-1 -11 -16 -34 0
-1 -11 -16 -41 0
-1 -11 -16 -43 0
-1 -11 -16 -53 0
-1 -11 -24 -26 0
-1 -11 -24 -34 0
-1 -11 -24 -41 0
-1 -11 -24 -43 0
-1 -11 -24 -53 0
-1 -11 -26 -34 0
-1 -11 -26 -41 0
-1 -11 -26 -43 0
-1 -11 -26 -53 0
-1 -11 -34 -41 0
-1 -11 -34 -43 0
-1 -11 -34 -53 0
-1 -11 -41 -43 0
-1 -11 -41 -53 0
-1 -11 -43 -53 0
-1 -16 -24 -26 0
-1 -16 -24 -34 0
-1 -16 -24 -41 0
-1 -16 -24 -43 0
-1 -16 -24 -53 0
-1 -16 -26 -34 0
-1 -16 -26 -41 0
-1 -16 -26 -43 0
-1 -16 -26 -53 0
-1 -16 -34 -41 0
-1 -16 -34 -43 0
-1 -16 -34 -53 0
-1 -16 -41 -43 0
-1 -16 -41 -53 0
-1 -16 -43 -53 0
-1 -24 -26 -34 0
-1 -24 -26 -41 0
-1 -24 -26 -43 0
-1 -24 -26 -53 0
-1 -24 -34 -41 0
-1 -24 -34 -43 0
-1 -24 -34 -53 0
-1 -24 -41 -43 0
-1 -24 -41 -53 0
-1 -24 -43 -53 0
-1 -26 -34 -41 0
-1 -26 -34 -43 0
-1 -26 -34 -53 0
-1 -26 -41 -43 0
-1 -26 -41 -53 0
-1 -26 -43 -53 0
-1 -34 -41 -43 0
-1 -34 -41 -53 0
-1 -34 -43 -53 0
-1 -41 -43 -53 0
-11 -16 -24 -26 0
-11 -16 -24 -34 0
-11 -16 -24 -41 0
-11 -16 -24 -43 0
-11 -16 -24 -53 0
-11 -16 -26 -34 0
-11 -16 -26 -41 0
-11 -16 -26 -43 0
-11 -16 -26 -53 0
-11 -16 -34 -41 0
-11 -16 -34 -43 0
-11 -16 -34 -53 0
-11 -16 -41 -43 0
-11 -16 -41 -53 0
-11 -16 -43 -53 0
-11 -24 -26 -34 0
-11 -24 -26 -41 0
-11 -24 -26 -43 0
-11 -24 -26 -53 0
-11 -24 -34 -41 0
-11 -24 -34 -43 0
-11 -24 -34 -53 0
-11 -24 -41 -43 0
-11 -24 -41 -53 0
-11 -24 -43 -53 0
-11 -26 -34 -41 0
-11 -26 -34 -43 0
-11 -26 -34 -53 0
-11 -26 -41 -43 0
-11 -26 -41 -53 0
-11 -26 -43 -53 0
-11 -34 -41 -43 0
-11 -34 -41 -53 0
-11 -34 -43 -53 0
-11 -41 -43 -53 0
-16 -24 -26 -34 0
-16 -24 -26 -41 0
-16 -24 -26 -43 0
-16 -24 -26 -53 0
-16 -24 -34 -41 0
-16 -24 -34 -43 0
-16 -24 -34 -53 0
-16 -24 -41 -43 0
-16 -24 -41 -53 0
-16 -24 -43 -53 0
-16 -26 -34 -41 0
-16 -26 -34 -43 0
-16 -26 -34 -53 0
-16 -26 -41 -43 0
-16 -26 -41 -53 0
-16 -26 -43 -53 0
-16 -34 -41 -43 0
-16 -34 -41 -53 0
-16 -34 -43 -53 0
-16 -41 -43 -53 0
-24 -26 -34 -41 0
-24 -26 -34 -43 0
-24 -26 -34 -53 0
-24 -26 -41 -43 0
-24 -26 -41 -53 0
-24 -26 -43 -53 0
-24 -34 -41 -43 0
-24 -34 -41 -53 0
-24 -34 -43 -53 0
-24 -41 -43 -53 0
-26 -34 -41 -43 0
-26 -34 -41 -53 0
-26 -34 -43 -53 0
-26 -41 -43 -53 0
-34 -41 -43 -53 0
-2 -12 -17 -19 0
-2 -12 -17 -27 0
-2 -12 -17 -35 0
-2 -12 -17 -42 0
-2 -12 -17 -44 0
-2 -12 -17 -54 0
-2 -12 -19 -27 0
-2 -12 -19 -35 0
-2 -12 -19 -42 0
-2 -12 -19 -44 0
-2 -12 -19 -54 0
-2 -12 -27 -35 0
-2 -12 -27 -42 0
-2 -12 -27 -44 0
-2 -12 -27 -54 0
-2 -12 -35 -42 0
-2 -12 -35 -44 0
-2 -12 -35 -54 0
-2 -12 -42 -44 0
-2 -12 -42 -54 0
-2 -12 -44 -54 0
-2 -17 -19 -27 0
-2 -17 -19 -35 0
-2 -17 -19 -42 0
-2 -17 -19 -44 0
-2 -17 -19 -54 0
-2 -17 -27 -35 0
-2 -17 -27 -42 0
-2 -17 -27 -44 0
-2 -17 -27 -54 0
-2 -17 -35 -42 0
-2 -17 -35 -44 0
-2 -17 -35 -54 0
-2 -17 -42 -44 0
-2 -17 -42 -54 0
-2 -17 -44 -54 0
-2 -19 -27 -35 0
-2 -19 -27 -42 0
-2 -19 -27 -44 0
-2 -19 -27 -54 0
-2 -19 -35 -42 0
-2 -19 -35 -44 0
-2 -19 -35 -54 0
-2 -19 -42 -44 0
-2 -19 -42 -54 0
-2 -19 -44 -54 0
-2 -27 -35 -42 0
-2 -27 -35 -44 0
-2 -27 -35 -54 0
-2 -27 -42 -44 0
-2 -27 -42 -54 0
-2 -27 -44 -54 0
-2 -35 -42 -44 0
-2 -35 -42 -54 0
-2 -35 -44 -54 0
-2 -42 -44 -54 0
-12 -17 -19 -27 0
-12 -17 -19 -35 0
-12 -17 -19 -42 0
-12 -17 -19 -44 0
-12 -17 -19 -54 0
-12 -17 -27 -35 0
-12 -17 -27 -42 0
-12 -17 -27 -44 0
-12 -17 -27 -54 0
-12 -17 -35 -42 0
-12 -17 -35 -44 0
-12 -17 -35 -54 0
-12 -17 -42 -44 0
-12 -17 -42 -54 0
-12 -17 -44 -54 0
-12 -19 -27 -35 0
-12 -19 -27 -42 0
-12 -19 -27 -44 0
-12 -19 -27 -54 0
-12 -19 -35 -42 0
-12 -19 -35 -44 0
-12 -19 -35 -54 0
-12 -19 -42 -44 0
-12 -19 -42 -54 0
-12 -19 -44 -54 0
-12 -27 -35 -42 0
-12 -27 -35 -44 0
-12 -27 -35 -54 0
-12 -27 -42 -44 0
-12 -27 -42 -54 0
-12 -27 -44 -54 0
-12 -35 -42 -44 0
-12 -35 -42 -54 0
-12 -35 -44 -54 0
-12 -42 -44 -54 0
-17 -19 -27 -35 0
-17 -19 -27 -42 0
-17 -19 -27 -44 0
-17 -19 -27 -54 0
-17 -19 -35 -42 0
-17 -19 -35 -44 0
-17 -19 -35 -54 0
-17 -19 -42 -44 0
-17 -19 -42 -54 0
-17 -19 -44 -54 0
-17 -27 -35 -42 0
-17 -27 -35 -44 0
-17 -27 -35 -54 0
-17 -27 -42 -44 0
-17 -27 -42 -54 0
-17 -27 -44 -54 0
-17 -35 -42 -44 0
-17 -35 -42 -54 0
-17 -35 -44 -54 0
-17 -42 -44 -54 0
-19 -27 -35 -42 0
-19 -27 -35 -44 0
-19 -27 -35 -54 0
-19 -27 -42 -44 0
-19 -27 -42 -54 0
-19 -27 -44 -54 0
-19 -35 -42 -44 0
-19 -35 -42 -54 0
-19 -35 -44 -54 0
-19 -42 -44 -54 0
-27 -35 -42 -44 0
-27 -35 -42 -54 0
-27 -35 -44 -54 0
-27 -42 -44 -54 0
-35 -42 -44 -54 0
-3 -7 -18 -20 0
-3 -7 -18 -28 0
-3 -7 -18 -36 0
-3 -7 -18 -37 0
-3 -7 -18 -45 0
-3 -7 -18 -49 0
-3 -7 -20 -28 0
-3 -7 -20 -36 0
-3 -7 -20 -37 0
-3 -7 -20 -45 0
-3 -7 -20 -49 0
-3 -7 -28 -36 0
-3 -7 -28 -37 0
-3 -7 -28 -45 0
-3 -7 -28 -49 0
-3 -7 -36 -37 0
-3 -7 -36 -45 0
-3 -7 -36 -49 0
-3 -7 -37 -45 0
-3 -7 -37 -49 0
-3 -7 -45 -49 0
-3 -18 -20 -28 0
-3 -18 -20 -36 0
-3 -18 -20 -37 0
-3 -18 -20 -45 0
-3 -18 -20 -49 0
-3 -18 -28 -36 0
-3 -18 -28 -37 0
-3 -18 -28 -45 0
-3 -18 -28 -49 0
-3 -18 -36 -37 0
-3 -18 -36 -45 0
-3 -18 -36 -49 0
-3 -18 -37 -45 0
-3 -18 -37 -49 0
-3 -18 -45 -49 0
-3 -20 -28 -36 0
-3 -20 -28 -37 0
-3 -20 -28 -45 0
-3 -20 -28 -49 0
-3 -20 -36 -37 0
-3 -20 -36 -45 0
-3 -20 -36 -49 0
-3 -20 -37 -45 0
-3 -20 -37 -49 0
-3 -20 -45 -49 0
-3 -28 -36 -37 0
-3 -28 -36 -45 0
-3 -28 -36 -49 0
-3 -28 -37 -45 0
-3 -28 -37 -49 0
-3 -28 -45 -49 0
-3 -36 -37 -45 0
-3 -36 -37 -49 0
-3 -36 -45 -49 0
-3 -37 -45 -49 0
-7 -18 -20 -28 0
-7 -18 -20 -36 0
-7 -18 -20 -37 0
-7 -18 -20 -45 0
-7 -18 -20 -49 0
-7 -18 -28 -36 0
-7 -18 -28 -37 0
-7 -18 -28 -45 0
-7 -18 -28 -49 0
-7 -18 -36 -37 0
-7 -18 -36 -45 0
-7 -18 -36 -49 0
-7 -18 -37 -45 0
-7 -18 -37 -49 0
-7 -18 -45 -49 0
-7 -20 -28 -36 0
-7 -20 -28 -37 0
-7 -20 -28 -45 0
-7 -20 -28 -49 0
-7 -20 -36 -37 0
-7 -20 -36 -45 0
-7 -20 -36 -49 0
-7 -20 -37 -45 0
-7 -20 -37 -49 0
-7 -20 -45 -49 0
-7 -28 -36 -37 0
-7 -28 -36 -45 0
-7 -28 -36 -49 0
-7 -28 -37 -45 0
-7 -28 -37 -49 0
-7 -28 -45 -49 0
-7 -36 -37 -45 0
-7 -36 -37 -49 0
-7 -36 -45 -49 0
-7 -37 -45 -49 0
-18 -20 -28 -36 0
-18 -20 -28 -37 0
-18 -20 -28 -45 0
-18 -20 -28 -49 0
-18 -20 -36 -37 0
-18 -20 -36 -45 0
-18 -20 -36 -49 0
-18 -20 -37 -45 0
-18 -20 -37 -49 0
-18 -20 -45 -49 0
-18 -28 -36 -37 0
-18 -28 -36 -45 0
-18 -28 -36 -49 0
-18 -28 -37 -45 0
-18 -28 -37 -49 0
-18 -28 -45 -49 0
-18 -36 -37 -45 0
-18 -36 -37 -49 0
-18 -36 -45 -49 0
-18 -37 -45 -49 0
-20 -28 -36 -37 0
-20 -28 -36 -45 0
-20 -28 -36 -49 0
-20 -28 -37 -45 0
-20 -28 -37 -49 0
-20 -28 -45 -49 0
-20 -36 -37 -45 0
-20 -36 -37 -49 0
-20 -36 -45 -49 0
-20 -37 -45 -49 0
-28 -36 -37 -45 0
-28 -36 -37 -49 0
-28 -36 -45 -49 0
-28 -37 -45 -49 0
-36 -37 -45 -49 0
-4 -8 -13 -21 0
-4 -8 -13 -29 0
-4 -8 -13 -31 0
-4 -8 -13 -38 0
-4 -8 -13 -46 0
-4 -8 -13 -50 0
-4 -8 -21 -29 0
-4 -8 -21 -31 0
-4 -8 -21 -38 0
-4 -8 -21 -46 0
-4 -8 -21 -50 0
-4 -8 -29 -31 0
-4 -8 -29 -38 0
-4 -8 -29 -46 0
-4 -8 -29 -50 0
-4 -8 -31 -38 0
-4 -8 -31 -46 0
-4 -8 -31 -50 0
-4 -8 -38 -46 0
-4 -8 -38 -50 0
-4 -8 -46 -50 0
-4 -13 -21 -29 0
-4 -13 -21 -31 0
-4 -13 -21 -38 0
-4 -13 -21 -46 0
-4 -13 -21 -50 0
-4 -13 -29 -31 0
-4 -13 -29 -38 0
-4 -13 -29 -46 0
-4 -13 -29 -50 0
-4 -13 -31 -38 0
-4 -13 -31 -46 0
-4 -13 -31 -50 0
-4 -13 -38 -46 0
-4 -13 -38 -50 0
-4 -13 -46 -50 0
-4 -21 -29 -31 0
-4 -21 -29 -38 0
-4 -21 -29 -46 0
-4 -21 -29 -50 0
-4 -21 -31 -38 0
-4 -21 -31 -46 0
-4 -21 -31 -50 0
-4 -21 -38 -46 0
-4 -21 -38 -50 0
-4 -21 -46 -50 0
-4 -29 -31 -38 0
-4 -29 -31 -46 0
-4 -29 -31 -50 0
-4 -29 -38 -46 0
-4 -29 -38 -50 0
-4 -29 -46 -50 0
-4 -31 -38 -46 0
-4 -31 -38 -50 0
-4 -31 -46 -50 0
-4 -38 -46 -50 0
-8 -13 -21 -29 0
-8 -13 -21 -31 0
-8 -13 -21 -38 0
-8 -13 -21 -46 0
-8 -13 -21 -50 0
-8 -13 -29 -31 0
-8 -13 -29 -38 0
-8 -13 -29 -46 0
-8 -13 -29 -50 0
-8 -13 -31 -38 0
-8 -13 -31 -46 0
-8 -13 -31 -50 0
-8 -13 -38 -46 0
-8 -13 -38 -50 0
-8 -13 -46 -50 0
-8 -21 -29 -31 0
-8 -21 -29 -38 0
-8 -21 -29 -46 0
-8 -21 -29 -50 0
-8 -21 -31 -38 0
-8 -21 -31 -46 0
-8 -21 -31 -50 0
-8 -21 -38 -46 0
-8 -21 -38 -50 0
-8 -21 -46 -50 0
-8 -29 -31 -38 0
-8 -29 -31 -46 0
-8 -29 -31 -50 0
-8 -29 -38 -46 0
-8 -29 -38 -50 0
-8 -29 -46 -50 0
-8 -31 -38 -46 0
-8 -31 -38 -50 0
-8 -31 -46 -50 0
-8 -38 -46 -50 0
-13 -21 -29 -31 0
-13 -21 -29 -38 0
-13 -21 -29 -46 0
-13 -21 -29 -50 0
-13 -21 -31 -38 0
-13 -21 -31 -46 0
-13 -21 -31 -50 0
-13 -21 -38 -46 0
-13 -21 -38 -50 0
-13 -21 -46 -50 0
-13 -29 -31 -38 0
-13 -29 -31 -46 0
-13 -29 -31 -50 0
-13 -29 -38 -46 0
-13 -29 -38 -50 0
-13 -29 -46 -50 0
-13 -31 -38 -46 0
-13 -31 -38 -50 0
-13 -31 -46 -50 0
-13 -38 -46 -50 0
-21 -29 -31 -38 0
-21 -29 -31 -46 0
-21 -29 -31 -50 0
-21 -29 -38 -46 0
-21 -29 -38 -50 0
-21 -29 -46 -50 0
-21 -31 -38 -46 0
-21 -31 -38 -50 0
-21 -31 -46 -50 0
-21 -38 -46 -50 0
-29 -31 -38 -46 0
-29 -31 -38 -50 0
-29 -31 -46 -50 0
-29 -38 -46 -50 0
-31 -38 -46 -50 0
-5 -9 -14 -22 0
-5 -9 -14 -30 0
-5 -9 -14 -32 0
-5 -9 -14 -39 0
-5 -9 -14 -47 0
-5 -9 -14 -51 0
-5 -9 -22 -30 0
-5 -9 -22 -32 0
-5 -9 -22 -39 0
-5 -9 -22 -47 0
-5 -9 -22 -51 0
-5 -9 -30 -32 0
-5 -9 -30 -39 0
-5 -9 -30 -47 0
-5 -9 -30 -51 0
-5 -9 -32 -39 0
-5 -9 -32 -47 0
-5 -9 -32 -51 0
-5 -9 -39 -47 0
-5 -9 -39 -51 0
-5 -9 -47 -51 0
-5 -14 -22 -30 0
-5 -14 -22 -32 0
-5 -14 -22 -39 0
-5 -14 -22 -47 0
-5 -14 -22 -51 0
-5 -14 -30 -32 0
-5 -14 -30 -39 0
-5 -14 -30 -47 0
-5 -14 -30 -51 0
-5 -14 -32 -39 0
-5 -14 -32 -47 0
-5 -14 -32 -51 0
-5 -14 -39 -47 0
-5 -14 -39 -51 0
-5 -14 -47 -51 0
-5 -22 -30 -32 0
-5 -22 -30 -39 0
-5 -22 -30 -47 0
-5 -22 -30 -51 0
-5 -22 -32 -39 0
-5 -22 -32 -47 0
-5 -22 -32 -51 0
-5 -22 -39 -47 0
-5 -22 -39 -51 0
-5 -22 -47 -51 0
-5 -30 -32 -39 0
-5 -30 -32 -47 0
-5 -30 -32 -51 0
-5 -30 -39 -47 0
-5 -30 -39 -51 0
-5 -30 -47 -51 0
-5 -32 -39 -47 0
-5 -32 -39 -51 0
-5 -32 -47 -51 0
-5 -39 -47 -51 0
-9 -14 -22 -30 0
-9 -14 -22 -32 0
-9 -14 -22 -39 0
-9 -14 -22 -47 0
-9 -14 -22 -51 0
-9 -14 -30 -32 0
-9 -14 -30 -39 0
-9 -14 -30 -47 0
-9 -14 -30 -51 0
-9 -14 -32 -39 0
-9 -14 -32 -47 0
-9 -14 -32 -51 0
-9 -14 -39 -47 0
-9 -14 -39 -51 0
-9 -14 -47 -51 0
-9 -22 -30 -32 0
-9 -22 -30 -39 0
-9 -22 -30 -47 0
-9 -22 -30 -51 0
-9 -22 -32 -39 0
-9 -22 -32 -47 0
-9 -22 -32 -51 0
-9 -22 -39 -47 0
-9 -22 -39 -51 0
-9 -22 -47 -51 0
-9 -30 -32 -39 0
-9 -30 -32 -47 0
-9 -30 -32 -51 0
-9 -30 -39 -47 0
-9 -30 -39 -51 0
-9 -30 -47 -51 0
-9 -32 -39 -47 0
-9 -32 -39 -51 0
-9 -32 -47 -51 0
-9 -39 -47 -51 0
-14 -22 -30 -32 0
-14 -22 -30 -39 0
-14 -22 -30 -47 0
-14 -22 -30 -51 0
-14 -22 -32 -39 0
-14 -22 -32 -47 0
-14 -22 -32 -51 0
-14 -22 -39 -47 0
-14 -22 -39 -51 0
-14 -22 -47 -51 0
-14 -30 -32 -39 0
-14 -30 -32 -47 0
-14 -30 -32 -51 0
-14 -30 -39 -47 0
-14 -30 -39 -51 0
-14 -30 -47 -51 0
-14 -32 -39 -47 0
-14 -32 -39 -51 0
-14 -32 -47 -51 0
-14 -39 -47 -51 0
-22 -30 -32 -39 0
-22 -30 -32 -47 0
-22 -30 -32 -51 0
-22 -30 -39 -47 0
-22 -30 -39 -51 0
-22 -30 -47 -51 0
-22 -32 -39 -47 0
-22 -32 -39 -51 0
-22 -32 -47 -51 0
-22 -39 -47 -51 0
-30 -32 -39 -47 0
-30 -32 -39 -51 0
-30 -32 -47 -51 0
-30 -39 -47 -51 0
-32 -39 -47 -51 0
-6 -10 -15 -23 0
-6 -10 -15 -25 0
-6 -10 -15 -33 0
-6 -10 -15 -40 0
-6 -10 -15 -48 0
-6 -10 -15 -52 0
-6 -10 -23 -25 0
-6 -10 -23 -33 0
-6 -10 -23 -40 0
-6 -10 -23 -48 0
-6 -10 -23 -52 0
-6 -10 -25 -33 0
-6 -10 -25 -40 0
-6 -10 -25 -48 0
-6 -10 -25 -52 0
-6 -10 -33 -40 0
-6 -10 -33 -48 0
-6 -10 -33 -52 0
-6 -10 -40 -48 0
-6 -10 -40 -52 0
-6 -10 -48 -52 0
-6 -15 -23 -25 0
-6 -15 -23 -33 0
-6 -15 -23 -40 0
-6 -15 -23 -48 0
-6 -15 -23 -52 0
-6 -15 -25 -33 0
-6 -15 -25 -40 0
-6 -15 -25 -48 0
-6 -15 -25 -52 0
-6 -15 -33 -40 0
-6 -15 -33 -48 0
-6 -15 -33 -52 0
-6 -15 -40 -48 0
-6 -15 -40 -52 0
-6 -15 -48 -52 0
-6 -23 -25 -33 0
-6 -23 -25 -40 0
-6 -23 -25 -48 0
-6 -23 -25 -52 0
-6 -23 -33 -40 0
-6 -23 -33 -48 0
-6 -23 -33 -52 0
-6 -23 -40 -48 0
-6 -23 -40 -52 0
-6 -23 -48 -52 0
-6 -25 -33 -40 0
-6 -25 -33 -48 0
-6 -25 -33 -52 0
-6 -25 -40 -48 0
-6 -25 -40 -52 0
-6 -25 -48 -52 0
-6 -33 -40 -48 0
-6 -33 -40 -52 0
-6 -33 -48 -52 0
-6 -40 -48 -52 0
-10 -15 -23 -25 0
-10 -15 -23 -33 0
-10 -15 -23 -40 0
-10 -15 -23 -48 0
-10 -15 -23 -52 0
-10 -15 -25 -33 0
-10 -15 -25 -40 0
-10 -15 -25 -48 0
-10 -15 -25 -52 0
-10 -15 -33 -40 0
-10 -15 -33 -48 0
-10 -15 -33 -52 0
-10 -15 -40 -48 0
-10 -15 -40 -52 0
-10 -15 -48 -52 0
-10 -23 -25 -33 0
-10 -23 -25 -40 0
-10 -23 -25 -48 0
-10 -23 -25 -52 0
-10 -23 -33 -40 0
-10 -23 -33 -48 0
-10 -23 -33 -52 0
-10 -23 -40 -48 0
-10 -23 -40 -52 0
-10 -23 -48 -52 0
-10 -25 -33 -40 0
-10 -25 -33 -48 0
-10 -25 -33 -52 0
-10 -25 -40 -48 0
-10 -25 -40 -52 0
-10 -25 -48 -52 0
-10 -33 -40 -48 0
-10 -33 -40 -52 0
-10 -33 -48 -52 0
-10 -40 -48 -52 0
-15 -23 -25 -33 0
-15 -23 -25 -40 0
-15 -23 -25 -48 0
-15 -23 -25 -52 0
-15 -23 -33 -40 0
-15 -23 -33 -48 0
-15 -23 -33 -52 0
-15 -23 -40 -48 0
-15 -23 -40 -52 0
-15 -23 -48 -52 0
-15 -25 -33 -40 0
-15 -25 -33 -48 0
-15 -25 -33 -52 0
-15 -25 -40 -48 0
-15 -25 -40 -52 0
-15 -25 -48 -52 0
-15 -33 -40 -48 0
-15 -33 -40 -52 0
-15 -33 -48 -52 0
-15 -40 -48 -52 0
-23 -25 -33 -40 0
-23 -25 -33 -48 0
-23 -25 -33 -52 0
-23 -25 -40 -48 0
-23 -25 -40 -52 0
-23 -25 -48 -52 0
-23 -33 -40 -48 0
-23 -33 -40 -52 0
-23 -33 -48 -52 0
-23 -40 -48 -52 0
-25 -33 -40 -48 0
-25 -33 -40 -52 0
-25 -33 -48 -52 0
-25 -40 -48 -52 0
-33 -40 -48 -52 0
-1 -7 -18 -19 0
-1 -7 -18 -29 0
-1 -7 -18 -32 0
-1 -7 -18 -37 0
-1 -7 -18 -47 0
-1 -7 -18 -53 0
-1 -7 -19 -29 0
-1 -7 -19 -32 0
-1 -7 -19 -37 0
-1 -7 -19 -47 0
-1 -7 -19 -53 0
-1 -7 -29 -32 0
-1 -7 -29 -37 0
-1 -7 -29 -47 0
-1 -7 -29 -53 0
-1 -7 -32 -37 0
-1 -7 -32 -47 0
-1 -7 -32 -53 0
-1 -7 -37 -47 0
-1 -7 -37 -53 0
-1 -7 -47 -53 0
-1 -18 -19 -29 0
-1 -18 -19 -32 0
-1 -18 -19 -37 0
-1 -18 -19 -47 0
-1 -18 -19 -53 0
-1 -18 -29 -32 0
-1 -18 -29 -37 0
-1 -18 -29 -47 0
-1 -18 -29 -53 0
-1 -18 -32 -37 0
-1 -18 -32 -47 0
-1 -18 -32 -53 0
-1 -18 -37 -47 0
-1 -18 -37 -53 0
-1 -18 -47 -53 0
-1 -19 -29 -32 0
-1 -19 -29 -37 0
-1 -19 -29 -47 0
-1 -19 -29 -53 0
-1 -19 -32 -37 0
-1 -19 -32 -47 0
-1 -19 -32 -53 0
-1 -19 -37 -47 0
-1 -19 -37 -53 0
-1 -19 -47 -53 0
-1 -29 -32 -37 0
-1 -29 -32 -47 0
-1 -29 -32 -53 0
-1 -29 -37 -47 0
-1 -29 -37 -53 0
-1 -29 -47 -53 0
-1 -32 -37 -47 0
-1 -32 -37 -53 0
-1 -32 -47 -53 0
-1 -37 -47 -53 0
-7 -18 -19 -29 0
-7 -18 -19 -32 0
-7 -18 -19 -37 0
-7 -18 -19 -47 0
-7 -18 -19 -53 0
-7 -18 -29 -32 0
-7 -18 -29 -37 0
-7 -18 -29 -47 0
-7 -18 -29 -53 0
-7 -18 -32 -37 0
-7 -18 -32 -47 0
-7 -18 -32 -53 0
-7 -18 -37 -47 0
-7 -18 -37 -53 0
-7 -18 -47 -53 0
-7 -19 -29 -32 0
-7 -19 -29 -37 0
-7 -19 -29 -47 0
-7 -19 -29 -53 0
-7 -19 -32 -37 0
-7 -19 -32 -47 0
-7 -19 -32 -53 0
-7 -19 -37 -47 0
-7 -19 -37 -53 0
-7 -19 -47 -53 0
-7 -29 -32 -37 0
-7 -29 -32 -47 0
-7 -29 -32 -53 0
-7 -29 -37 -47 0
-7 -29 -37 -53 0
-7 -29 -47 -53 0
-7 -32 -37 -47 0
-7 -32 -37 -53 0
-7 -32 -47 -53 0
-7 -37 -47 -53 0
-18 -19 -29 -32 0
-18 -19 -29 -37 0
-18 -19 -29 -47 0
-18 -19 -29 -53 0
-18 -19 -32 -37 0
-18 -19 -32 -47 0
-18 -19 -32 -53 0
-18 -19 -37 -47 0
-18 -19 -37 -53 0
-18 -19 -47 -53 0
-18 -29 -32 -37 0
-18 -29 -32 -47 0
-18 -29 -32 -53 0
-18 -29 -37 -47 0
-18 -29 -37 -53 0
-18 -29 -47 -53 0
-18 -32 -37 -47 0
-18 -32 -37 -53 0
-18 -32 -47 -53 0
-18 -37 -47 -53 0
-19 -29 -32 -37 0
-19 -29 -32 -47 0
-19 -29 -32 -53 0
-19 -29 -37 -47 0
-19 -29 -37 -53 0
-19 -29 -47 -53 0
-19 -32 -37 -47 0
-19 -32 -37 -53 0
-19 -32 -47 -53 0
-19 -37 -47 -53 0
-29 -32 -37 -47 0
-29 -32 -37 -53 0
-29 -32 -47 -53 0
-29 -37 -47 -53 0
-32 -37 -47 -53 0
-2 -8 -13 -20 0
-2 -8 -13 -30 0
-2 -8 -13 -33 0
-2 -8 -13 -38 0
-2 -8 -13 -48 0
-2 -8 -13 -54 0
-2 -8 -20 -30 0
-2 -8 -20 -33 0
-2 -8 -20 -38 0
-2 -8 -20 -48 0
-2 -8 -20 -54 0
-2 -8 -30 -33 0
-2 -8 -30 -38 0
-2 -8 -30 -48 0
-2 -8 -30 -54 0
-2 -8 -33 -38 0
-2 -8 -33 -48 0
-2 -8 -33 -54 0
-2 -8 -38 -48 0
-2 -8 -38 -54 0
-2 -8 -48 -54 0
-2 -13 -20 -30 0
-2 -13 -20 -33 0
-2 -13 -20 -38 0
-2 -13 -20 -48 0
-2 -13 -20 -54 0
-2 -13 -30 -33 0
-2 -13 -30 -38 0
-2 -13 -30 -48 0
-2 -13 -30 -54 0
-2 -13 -33 -38 0
-2 -13 -33 -48 0
-2 -13 -33 -54 0
-2 -13 -38 -48 0
-2 -13 -38 -54 0
-2 -13 -48 -54 0
-2 -20 -30 -33 0
-2 -20 -30 -38 0
-2 -20 -30 -48 0
-2 -20 -30 -54 0
-2 -20 -33 -38 0
-2 -20 -33 -48 0
-2 -20 -33 -54 0
-2 -20 -38 -48 0
-2 -20 -38 -54 0
-2 -20 -48 -54 0
-2 -30 -33 -38 0
-2 -30 -33 -48 0
-2 -30 -33 -54 0
-2 -30 -38 -48 0
-2 -30 -38 -54 0
-2 -30 -48 -54 0
-2 -33 -38 -48 0
-2 -33 -38 -54 0
-2 -33 -48 -54 0
-2 -38 -48 -54 0
-8 -13 -20 -30 0
-8 -13 -20 -33 0
-8 -13 -20 -38 0
-8 -13 -20 -48 0
-8 -13 -20 -54 0
-8 -13 -30 -33 0
-8 -13 -30 -38 0
-8 -13 -30 -48 0
-8 -13 -30 -54 0
-8 -13 -33 -38 0
-8 -13 -33 -48 0
-8 -13 -33 -54 0
-8 -13 -38 -48 0
-8 -13 -38 -54 0
-8 -13 -48 -54 0
-8 -20 -30 -33 0
-8 -20 -30 -38 0
-8 -20 -30 -48 0
-8 -20 -30 -54 0
-8 -20 -33 -38 0
-8 -20 -33 -48 0
-8 -20 -33 -54 0
-8 -20 -38 -48 0
-8 -20 -38 -54 0
-8 -20 -48 -54 0
-8 -30 -33 -38 0
-8 -30 -33 -48 0
-8 -30 -33 -54 0
-8 -30 -38 -48 0
-8 -30 -38 -54 0
-8 -30 -48 -54 0
-8 -33 -38 -48 0
-8 -33 -38 -54 0
-8 -33 -48 -54 0
-8 -38 -48 -54 0
-13 -20 -30 -33 0
-13 -20 -30 -38 0
-13 -20 -30 -48 0
-13 -20 -30 -54 0
-13 -20 -33 -38 0
-13 -20 -33 -48 0
-13 -20 -33 -54 0
-13 -20 -38 -48 0
-13 -20 -38 -54 0
-13 -20 -48 -54 0
-13 -30 -33 -38 0
-13 -30 -33 -48 0
-13 -30 -33 -54 0
-13 -30 -38 -48 0
-13 -30 -38 -54 0
-13 -30 -48 -54 0
-13 -33 -38 -48 0
-13 -33 -38 -54 0
-13 -33 -48 -54 0
-13 -38 -48 -54 0
-20 -30 -33 -38 0
-20 -30 -33 -48 0
-20 -30 -33 -54 0
-20 -30 -38 -48 0
-20 -30 -38 -54 0
-20 -30 -48 -54 0
-20 -33 -38 -48 0
-20 -33 -38 -54 0
-20 -33 -48 -54 0
-20 -38 -48 -54 0
-30 -33 -38 -48 0
-30 -33 -38 -54 0
-30 -33 -48 -54 0
-30 -38 -48 -54 0
-33 -38 -48 -54 0
-3 -9 -14 -21 0
-3 -9 -14 -25 0
-3 -9 -14 -34 0
-3 -9 -14 -39 0
-3 -9 -14 -43 0
-3 -9 -14 -49 0
-3 -9 -21 -25 0
-3 -9 -21 -34 0
-3 -9 -21 -39 0
-3 -9 -21 -43 0
-3 -9 -21 -49 0
-3 -9 -25 -34 0
-3 -9 -25 -39 0
-3 -9 -25 -43 0
-3 -9 -25 -49 0
-3 -9 -34 -39 0
-3 -9 -34 -43 0
-3 -9 -34 -49 0
-3 -9 -39 -43 0
-3 -9 -39 -49 0
-3 -9 -43 -49 0
-3 -14 -21 -25 0
-3 -14 -21 -34 0
-3 -14 -21 -39 0
-3 -14 -21 -43 0
-3 -14 -21 -49 0
-3 -14 -25 -34 0
-3 -14 -25 -39 0
-3 -14 -25 -43 0
-3 -14 -25 -49 0
-3 -14 -34 -39 0
-3 -14 -34 -43 0
-3 -14 -34 -49 0
-3 -14 -39 -43 0
-3 -14 -39 -49 0
-3 -14 -43 -49 0
-3 -21 -25 -34 0
-3 -21 -25 -39 0
-3 -21 -25 -43 0
-3 -21 -25 -49 0
-3 -21 -34 -39 0
-3 -21 -34 -43 0
-3 -21 -34 -49 0
-3 -21 -39 -43 0
-3 -21 -39 -49 0
-3 -21 -43 -49 0
-3 -25 -34 -39 0
-3 -25 -34 -43 0
-3 -25 -34 -49 0
-3 -25 -39 -43 0
-3 -25 -39 -49 0
-3 -25 -43 -49 0
-3 -34 -39 -43 0
-3 -34 -39 -49 0
-3 -34 -43 -49 0
-3 -39 -43 -49 0
-9 -14 -21 -25 0
-9 -14 -21 -34 0
-9 -14 -21 -39 0
-9 -14 -21 -43 0
-9 -14 -21 -49 0
-9 -14 -25 -34 0
-9 -14 -25 -39 0
-9 -14 -25 -43 0
-9 -14 -25 -49 0
-9 -14 -34 -39 0
-9 -14 -34 -43 0
-9 -14 -34 -49 0
-9 -14 -39 -43 0
-9 -14 -39 -49 0
-9 -14 -43 -49 0
-9 -21 -25 -34 0
-9 -21 -25 -39 0
-9 -21 -25 -43 0
-9 -21 -25 -49 0
-9 -21 -34 -39 0
-9 -21 -34 -43 0
-9 -21 -34 -49 0
-9 -21 -39 -43 0
-9 -21 -39 -49 0
-9 -21 -43 -49 0
-9 -25 -34 -39 0
-9 -25 -34 -43 0
-9 -25 -34 -49 0
-9 -25 -39 -43 0
-9 -25 -39 -49 0
-9 -25 -43 -49 0
-9 -34 -39 -43 0
-9 -34 -39 -49 0
-9 -34 -43 -49 0
-9 -39 -43 -49 0
-14 -21 -25 -34 0
-14 -21 -25 -39 0
-14 -21 -25 -43 0
-14 -21 -25 -49 0
-14 -21 -34 -39 0
-14 -21 -34 -43 0
-14 -21 -34 -49 0
-14 -21 -39 -43 0
-14 -21 -39 -49 0
-14 -21 -43 -49 0
-14 -25 -34 -39 0
-14 -25 -34 -43 0
-14 -25 -34 -49 0
-14 -25 -39 -43 0
-14 -25 -39 -49 0
-14 -25 -43 -49 0
-14 -34 -39 -43 0
-14 -34 -39 -49 0
-14 -34 -43 -49 0
-14 -39 -43 -49 0
-21 -25 -34 -39 0
-21 -25 -34 -43 0
-21 -25 -34 -49 0
-21 -25 -39 -43 0
-21 -25 -39 -49 0
-21 -25 -43 -49 0
-21 -34 -39 -43 0
-21 -34 -39 -49 0
-21 -34 -43 -49 0
-21 -39 -43 -49 0
-25 -34 -39 -43 0
-25 -34 -39 -49 0
-25 -34 -43 -49 0
-25 -39 -43 -49 0
-34 -39 -43 -49 0
-4 -10 -15 -22 0
-4 -10 -15 -26 0
-4 -10 -15 -35 0
-4 -10 -15 -40 0
-4 -10 -15 -44 0
-4 -10 -15 -50 0
-4 -10 -22 -26 0
-4 -10 -22 -35 0
-4 -10 -22 -40 0
-4 -10 -22 -44 0
-4 -10 -22 -50 0
-4 -10 -26 -35 0
-4 -10 -26 -40 0
-4 -10 -26 -44 0
-4 -10 -26 -50 0
-4 -10 -35 -40 0
-4 -10 -35 -44 0
-4 -10 -35 -50 0
-4 -10 -40 -44 0
-4 -10 -40 -50 0
-4 -10 -44 -50 0
-4 -15 -22 -26 0
-4 -15 -22 -35 0
-4 -15 -22 -40 0
-4 -15 -22 -44 0
-4 -15 -22 -50 0
-4 -15 -26 -35 0
-4 -15 -26 -40 0
-4 -15 -26 -44 0
-4 -15 -26 -50 0
-4 -15 -35 -40 0
-4 -15 -35 -44 0
-4 -15 -35 -50 0
-4 -15 -40 -44 0
-4 -15 -40 -50 0
-4 -15 -44 -50 0
-4 -22 -26 -35 0
-4 -22 -26 -40 0
-4 -22 -26 -44 0
-4 -22 -26 -50 0
-4 -22 -35 -40 0
-4 -22 -35 -44 0
-4 -22 -35 -50 0
-4 -22 -40 -44 0
-4 -22 -40 -50 0
-4 -22 -44 -50 0
-4 -26 -35 -40 0
-4 -26 -35 -44 0
-4 -26 -35 -50 0
-4 -26 -40 -44 0
-4 -26 -40 -50 0
-4 -26 -44 -50 0
-4 -35 -40 -44 0
-4 -35 -40 -50 0
-4 -35 -44 -50 0
-4 -40 -44 -50 0
-10 -15 -22 -26 0
-10 -15 -22 -35 0
-10 -15 -22 -40 0
-10 -15 -22 -44 0
-10 -15 -22 -50 0
-10 -15 -26 -35 0
-10 -15 -26 -40 0
-10 -15 -26 -44 0
-10 -15 -26 -50 0
-10 -15 -35 -40 0
-10 -15 -35 -44 0
-10 -15 -35 -50 0
-10 -15 -40 -44 0
-10 -15 -40 -50 0
-10 -15 -44 -50 0
-10 -22 -26 -35 0
-10 -22 -26 -40 0
-10 -22 -26 -44 0
-10 -22 -26 -50 0
-10 -22 -35 -40 0
-10 -22 -35 -44 0
-10 -22 -35 -50 0
-10 -22 -40 -44 0
-10 -22 -40 -50 0
-10 -22 -44 -50 0
-10 -26 -35 -40 0
-10 -26 -35 -44 0
-10 -26 -35 -50 0
-10 -26 -40 -44 0
-10 -26 -40 -50 0
-10 -26 -44 -50 0
-10 -35 -40 -44 0
-10 -35 -40 -50 0
-10 -35 -44 -50 0
-10 -40 -44 -50 0
-15 -22 -26 -35 0
-15 -22 -26 -40 0
-15 -22 -26 -44 0
-15 -22 -26 -50 0
-15 -22 -35 -40 0
-15 -22 -35 -44 0
-15 -22 -35 -50 0
-15 -22 -40 -44 0
-15 -22 -40 -50 0
-15 -22 -44 -50 0
-15 -26 -35 -40 0
-15 -26 -35 -44 0
-15 -26 -35 -50 0
-15 -26 -40 -44 0
-15 -26 -40 -50 0
-15 -26 -44 -50 0
-15 -35 -40 -44 0
-15 -35 -40 -50 0
-15 -35 -44 -50 0
-15 -40 -44 -50 0
-22 -26 -35 -40 0
-22 -26 -35 -44 0
-22 -26 -35 -50 0
-22 -26 -40 -44 0
-22 -26 -40 -50 0
-22 -26 -44 -50 0
-22 -35 -40 -44 0
-22 -35 -40 -50 0
-22 -35 -44 -50 0
-22 -40 -44 -50 0
-26 -35 -40 -44 0
-26 -35 -40 -50 0
-26 -35 -44 -50 0
-26 -40 -44 -50 0
-35 -40 -44 -50 0
-5 -11 -16 -23 0
-5 -11 -16 -27 0
-5 -11 -16 -36 0
-5 -11 -16 -41 0
-5 -11 -16 -45 0
-5 -11 -16 -51 0
-5 -11 -23 -27 0
-5 -11 -23 -36 0
-5 -11 -23 -41 0
-5 -11 -23 -45 0
-5 -11 -23 -51 0
-5 -11 -27 -36 0
-5 -11 -27 -41 0
-5 -11 -27 -45 0
-5 -11 -27 -51 0
-5 -11 -36 -41 0
-5 -11 -36 -45 0
-5 -11 -36 -51 0
-5 -11 -41 -45 0
-5 -11 -41 -51 0
-5 -11 -45 -51 0
-5 -16 -23 -27 0
-5 -16 -23 -36 0
-5 -16 -23 -41 0
-5 -16 -23 -45 0
-5 -16 -23 -51 0
-5 -16 -27 -36 0
-5 -16 -27 -41 0
-5 -16 -27 -45 0
-5 -16 -27 -51 0
-5 -16 -36 -41 0
-5 -16 -36 -45 0
-5 -16 -36 -51 0
-5 -16 -41 -45 0
-5 -16 -41 -51 0
-5 -16 -45 -51 0
-5 -23 -27 -36 0
-5 -23 -27 -41 0
-5 -23 -27 -45 0
-5 -23 -27 -51 0
-5 -23 -36 -41 0
-5 -23 -36 -45 0
-5 -23 -36 -51 0
-5 -23 -41 -45 0
-5 -23 -41 -51 0
-5 -23 -45 -51 0
-5 -27 -36 -41 0
-5 -27 -36 -45 0
-5 -27 -36 -51 0
-5 -27 -41 -45 0
-5 -27 -41 -51 0
-5 -27 -45 -51 0
-5 -36 -41 -45 0
-5 -36 -41 -51 0
-5 -36 -45 -51 0
-5 -41 -45 -51 0
-11 -16 -23 -27 0
-11 -16 -23 -36 0
-11 -16 -23 -41 0
-11 -16 -23 -45 0
-11 -16 -23 -51 0
-11 -16 -27 -36 0
-11 -16 -27 -41 0
-11 -16 -27 -45 0
-11 -16 -27 -51 0
-11 -16 -36 -41 0
-11 -16 -36 -45 0
-11 -16 -36 -51 0
-11 -16 -41 -45 0
-11 -16 -41 -51 0
-11 -16 -45 -51 0
-11 -23 -27 -36 0
-11 -23 -27 -41 0
-11 -23 -27 -45 0
-11 -23 -27 -51 0
-11 -23 -36 -41 0
-11 -23 -36 -45 0
-11 -23 -36 -51 0
-11 -23 -41 -45 0
-11 -23 -41 -51 0
-11 -23 -45 -51 0
-11 -27 -36 -41 0
-11 -27 -36 -45 0
-11 -27 -36 -51 0
-11 -27 -41 -45 0
-11 -27 -41 -51 0
-11 -27 -45 -51 0
-11 -36 -41 -45 0
-11 -36 -41 -51 0
-11 -36 -45 -51 0
-11 -41 -45 -51 0
-16 -23 -27 -36 0
-16 -23 -27 -41 0
-16 -23 -27 -45 0
-16 -23 -27 -51 0
-16 -23 -36 -41 0
-16 -23 -36 -45 0
-16 -23 -36 -51 0
-16 -23 -41 -45 0
-16 -23 -41 -51 0
-16 -23 -45 -51 0
-16 -27 -36 -41 0
-16 -27 -36 -45 0
-16 -27 -36 -51 0
-16 -27 -41 -45 0
-16 -27 -41 -51 0
-16 -27 -45 -51 0
-16 -36 -41 -45 0
-16 -36 -41 -51 0
-16 -36 -45 -51 0
-16 -41 -45 -51 0
-23 -27 -36 -41 0
-23 -27 -36 -45 0
-23 -27 -36 -51 0
-23 -27 -41 -45 0
-23 -27 -41 -51 0
-23 -27 -45 -51 0
-23 -36 -41 -45 0
-23 -36 -41 -51 0
-23 -36 -45 -51 0
-23 -41 -45 -51 0
-27 -36 -41 -45 0
-27 -36 -41 -51 0
-27 -36 -45 -51 0
-27 -41 -45 -51 0
-36 -41 -45 -51 0
-6 -12 -17 -24 0
-6 -12 -17 -28 0
-6 -12 -17 -31 0
-6 -12 -17 -42 0
-6 -12 -17 -46 0
-6 -12 -17 -52 0
-6 -12 -24 -28 0
-6 -12 -24 -31 0
-6 -12 -24 -42 0
-6 -12 -24 -46 0
-6 -12 -24 -52 0
-6 -12 -28 -31 0
-6 -12 -28 -42 0
-6 -12 -28 -46 0
-6 -12 -28 -52 0
-6 -12 -31 -42 0
-6 -12 -31 -46 0
-6 -12 -31 -52 0
-6 -12 -42 -46 0
-6 -12 -42 -52 0
-6 -12 -46 -52 0
-6 -17 -24 -28 0
-6 -17 -24 -31 0
-6 -17 -24 -42 0
-6 -17 -24 -46 0
-6 -17 -24 -52 0
-6 -17 -28 -31 0
-6 -17 -28 -42 0
-6 -17 -28 -46 0
-6 -17 -28 -52 0
-6 -17 -31 -42 0
-6 -17 -31 -46 0
-6 -17 -31 -52 0
-6 -17 -42 -46 0
-6 -17 -42 -52 0
-6 -17 -46 -52 0
-6 -24 -28 -31 0
-6 -24 -28 -42 0
-6 -24 -28 -46 0
-6 -24 -28 -52 0
-6 -24 -31 -42 0
-6 -24 -31 -46 0
-6 -24 -31 -52 0
-6 -24 -42 -46 0
-6 -24 -42 -52 0
-6 -24 -46 -52 0
-6 -28 -31 -42 0
-6 -28 -31 -46 0
-6 -28 -31 -52 0
-6 -28 -42 -46 0
-6 -28 -42 -52 0
-6 -28 -46 -52 0
-6 -31 -42 -46 0
-6 -31 -42 -52 0
-6 -31 -46 -52 0
-6 -42 -46 -52 0
-12 -17 -24 -28 0
-12 -17 -24 -31 0
-12 -17 -24 -42 0
-12 -17 -24 -46 0
-12 -17 -24 -52 0
-12 -17 -28 -31 0
-12 -17 -28 -42 0
-12 -17 -28 -46 0
-12 -17 -28 -52 0
-12 -17 -31 -42 0
-12 -17 -31 -46 0
-12 -17 -31 -52 0
-12 -17 -42 -46 0
-12 -17 -42 -52 0
-12 -17 -46 -52 0
-12 -24 -28 -31 0
-12 -24 -28 -42 0
-12 -24 -28 -46 0
-12 -24 -28 -52 0
-12 -24 -31 -42 0
-12 -24 -31 -46 0
-12 -24 -31 -52 0
-12 -24 -42 -46 0
-12 -24 -42 -52 0
-12 -24 -46 -52 0
-12 -28 -31 -42 0
-12 -28 -31 -46 0
-12 -28 -31 -52 0
-12 -28 -42 -46 0
-12 -28 -42 -52 0
-12 -28 -46 -52 0
-12 -31 -42 -46 0
-12 -31 -42 -52 0
-12 -31 -46 -52 0
-12 -42 -46 -52 0
-17 -24 -28 -31 0
-17 -24 -28 -42 0
-17 -24 -28 -46 0
-17 -24 -28 -52 0
-17 -24 -31 -42 0
-17 -24 -31 -46 0
-17 -24 -31 -52 0
-17 -24 -42 -46 0
-17 -24 -42 -52 0
-17 -24 -46 -52 0
-17 -28 -31 -42 0
-17 -28 -31 -46 0
-17 -28 -31 -52 0
-17 -28 -42 -46 0
-17 -28 -42 -52 0
-17 -28 -46 -52 0
-17 -31 -42 -46 0
-17 -31 -42 -52 0
-17 -31 -46 -52 0
-17 -42 -46 -52 0
-24 -28 -31 -42 0
-24 -28 -31 -46 0
-24 -28 -31 -52 0
-24 -28 -42 -46 0
-24 -28 -42 -52 0
-24 -28 -46 -52 0
-24 -31 -42 -46 0
-24 -31 -42 -52 0
-24 -31 -46 -52 0
-24 -42 -46 -52 0
-28 -31 -42 -46 0
-28 -31 -42 -52 0
-28 -31 -46 -52 0
-28 -42 -46 -52 0
-31 -42 -46 -52 0
-1 -9 -13 -24 0
-1 -9 -13 -26 0
-1 -9 -13 -35 0
-1 -9 -13 -41 0
-1 -9 -13 -48 0
-1 -9 -13 -52 0
-1 -9 -24 -26 0
-1 -9 -24 -35 0
-1 -9 -24 -41 0
-1 -9 -24 -48 0
-1 -9 -24 -52 0
-1 -9 -26 -35 0
-1 -9 -26 -41 0
-1 -9 -26 -48 0
-1 -9 -26 -52 0
-1 -9 -35 -41 0
-1 -9 -35 -48 0
-1 -9 -35 -52 0
-1 -9 -41 -48 0
-1 -9 -41 -52 0
-1 -9 -48 -52 0
-1 -13 -24 -26 0
-1 -13 -24 -35 0
-1 -13 -24 -41 0
-1 -13 -24 -48 0
-1 -13 -24 -52 0
-1 -13 -26 -35 0
-1 -13 -26 -41 0
-1 -13 -26 -48 0
-1 -13 -26 -52 0
-1 -13 -35 -41 0
-1 -13 -35 -48 0
-1 -13 -35 -52 0
-1 -13 -41 -48 0
-1 -13 -41 -52 0
-1 -13 -48 -52 0
-1 -24 -26 -35 0
-1 -24 -26 -41 0
-1 -24 -26 -48 0
-1 -24 -26 -52 0
-1 -24 -35 -41 0
-1 -24 -35 -48 0
-1 -24 -35 -52 0
-1 -24 -41 -48 0
-1 -24 -41 -52 0
-1 -24 -48 -52 0
-1 -26 -35 -41 0
-1 -26 -35 -48 0
-1 -26 -35 -52 0
-1 -26 -41 -48 0
-1 -26 -41 -52 0
-1 -26 -48 -52 0
-1 -35 -41 -48 0
-1 -35 -41 -52 0
-1 -35 -48 -52 0
-1 -41 -48 -52 0
-9 -13 -24 -26 0
-9 -13 -24 -35 0
-9 -13 -24 -41 0
-9 -13 -24 -48 0
-9 -13 -24 -52 0
-9 -13 -26 -35 0
-9 -13 -26 -41 0
-9 -13 -26 -48 0
-9 -13 -26 -52 0
-9 -13 -35 -41 0
-9 -13 -35 -48 0
-9 -13 -35 -52 0
-9 -13 -41 -48 0
-9 -13 -41 -52 0
-9 -13 -48 -52 0
-9 -24 -26 -35 0
-9 -24 -26 -41 0
-9 -24 -26 -48 0
-9 -24 -26 -52 0
-9 -24 -35 -41 0
-9 -24 -35 -48 0
-9 -24 -35 -52 0
-9 -24 -41 -48 0
-9 -24 -41 -52 0
-9 -24 -48 -52 0
-9 -26 -35 -41 0
-9 -26 -35 -48 0
-9 -26 -35 -52 0
-9 -26 -41 -48 0
-9 -26 -41 -52 0
-9 -26 -48 -52 0
-9 -35 -41 -48 0
-9 -35 -41 -52 0
-9 -35 -48 -52 0
-9 -41 -48 -52 0
-13 -24 -26 -35 0
-13 -24 -26 -41 0
-13 -24 -26 -48 0
-13 -24 -26 -52 0
-13 -24 -35 -41 0
-13 -24 -35 -48 0
-13 -24 -35 -52 0
-13 -24 -41 -48 0
-13 -24 -41 -52 0
-13 -24 -48 -52 0
-13 -26 -35 -41 0
-13 -26 -35 -48 0
-13 -26 -35 -52 0
-13 -26 -41 -48 0
-13 -26 -41 -52 0
-13 -26 -48 -52 0
-13 -35 -41 -48 0
-13 -35 -41 -52 0
-13 -35 -48 -52 0
-13 -41 -48 -52 0
-24 -26 -35 -41 0
-24 -26 -35 -48 0
-24 -26 -35 -52 0
-24 -26 -41 -48 0
-24 -26 -41 -52 0
-24 -26 -48 -52 0
-24 -35 -41 -48 0
-24 -35 -41 -52 0
-24 -35 -48 -52 0
-24 -41 -48 -52 0
-26 -35 -41 -48 0
-26 -35 -41 -52 0
-26 -35 -48 -52 0
-26 -41 -48 -52 0
-35 -41 -48 -52 0
-2 -10 -14 -19 0
-2 -10 -14 -27 0
-2 -10 -14 -36 0
-2 -10 -14 -42 0
-2 -10 -14 -43 0
-2 -10 -14 -53 0
-2 -10 -19 -27 0
-2 -10 -19 -36 0
-2 -10 -19 -42 0
-2 -10 -19 -43 0
-2 -10 -19 -53 0
-2 -10 -27 -36 0
-2 -10 -27 -42 0
-2 -10 -27 -43 0
-2 -10 -27 -53 0
-2 -10 -36 -42 0
-2 -10 -36 -43 0
-2 -10 -36 -53 0
-2 -10 -42 -43 0
-2 -10 -42 -53 0
-2 -10 -43 -53 0
-2 -14 -19 -27 0
-2 -14 -19 -36 0
-2 -14 -19 -42 0
-2 -14 -19 -43 0
-2 -14 -19 -53 0
-2 -14 -27 -36 0
-2 -14 -27 -42 0
-2 -14 -27 -43 0
-2 -14 -27 -53 0
-2 -14 -36 -42 0
-2 -14 -36 -43 0
-2 -14 -36 -53 0
-2 -14 -42 -43 0
-2 -14 -42 -53 0
-2 -14 -43 -53 0
-2 -19 -27 -36 0
-2 -19 -27 -42 0
-2 -19 -27 -43 0
-2 -19 -27 -53 0
-2 -19 -36 -42 0
-2 -19 -36 -43 0
-2 -19 -36 -53 0
-2 -19 -42 -43 0
-2 -19 -42 -53 0
-2 -19 -43 -53 0
-2 -27 -36 -42 0
-2 -27 -36 -43 0
-2 -27 -36 -53 0
-2 -27 -42 -43 0
-2 -27 -42 -53 0
-2 -27 -43 -53 0
-2 -36 -42 -43 0
-2 -36 -42 -53 0
-2 -36 -43 -53 0
-2 -42 -43 -53 0
-10 -14 -19 -27 0
-10 -14 -19 -36 0
-10 -14 -19 -42 0
-10 -14 -19 -43 0
-10 -14 -19 -53 0
-10 -14 -27 -36 0
-10 -14 -27 -42 0
-10 -14 -27 -43 0
-10 -14 -27 -53 0
-10 -14 -36 -42 0
-10 -14 -36 -43 0
-10 -14 -36 -53 0
-10 -14 -42 -43 0
-10 -14 -42 -53 0
-10 -14 -43 -53 0
-10 -19 -27 -36 0
-10 -19 -27 -42 0
-10 -19 -27 -43 0
-10 -19 -27 -53 0
-10 -19 -36 -42 0
-10 -19 -36 -43 0
-10 -19 -36 -53 0
-10 -19 -42 -43 0
-10 -19 -42 -53 0
-10 -19 -43 -53 0
-10 -27 -36 -42 0
-10 -27 -36 -43 0
-10 -27 -36 -53 0
-10 -27 -42 -43 0
-10 -27 -42 -53 0
-10 -27 -43 -53 0
-10 -36 -42 -43 0
-10 -36 -42 -53 0
-10 -36 -43 -53 0
-10 -42 -43 -53 0
-14 -19 -27 -36 0
-14 -19 -27 -42 0
-14 -19 -27 -43 0
-14 -19 -27 -53 0
-14 -19 -36 -42 0
-14 -19 -36 -43 0
-14 -19 -36 -53 0
-14 -19 -42 -43 0
-14 -19 -42 -53 0
-14 -19 -43 -53 0
-14 -27 -36 -42 0
-14 -27 -36 -43 0
-14 -27 -36 -53 0
-14 -27 -42 -43 0
-14 -27 -42 -53 0
-14 -27 -43 -53 0
-14 -36 -42 -43 0
-14 -36 -42 -53 0
-14 -36 -43 -53 0
-14 -42 -43 -53 0
-19 -27 -36 -42 0
-19 -27 -36 -43 0
-19 -27 -36 -53 0
-19 -27 -42 -43 0
-19 -27 -42 -53 0
-19 -27 -43 -53 0
-19 -36 -42 -43 0
-19 -36 -42 -53 0
-19 -36 -43 -53 0
-19 -42 -43 -53 0
-27 -36 -42 -43 0
-27 -36 -42 -53 0
-27 -36 -43 -53 0
-27 -42 -43 -53 0
-36 -42 -43 -53 0
-3 -11 -15 -20 0
-3 -11 -15 -28 0
-3 -11 -15 -31 0
-3 -11 -15 -37 0
-3 -11 -15 -44 0
-3 -11 -15 -54 0
-3 -11 -20 -28 0
-3 -11 -20 -31 0
-3 -11 -20 -37 0
-3 -11 -20 -44 0
-3 -11 -20 -54 0
-3 -11 -28 -31 0
-3 -11 -28 -37 0
-3 -11 -28 -44 0
-3 -11 -28 -54 0
-3 -11 -31 -37 0
-3 -11 -31 -44 0
-3 -11 -31 -54 0
-3 -11 -37 -44 0
-3 -11 -37 -54 0
-3 -11 -44 -54 0
-3 -15 -20 -28 0
-3 -15 -20 -31 0
-3 -15 -20 -37 0
-3 -15 -20 -44 0
-3 -15 -20 -54 0
-3 -15 -28 -31 0
-3 -15 -28 -37 0
-3 -15 -28 -44 0
-3 -15 -28 -54 0
-3 -15 -31 -37 0
-3 -15 -31 -44 0
-3 -15 -31 -54 0
-3 -15 -37 -44 0
-3 -15 -37 -54 0
-3 -15 -44 -54 0
-3 -20 -28 -31 0
-3 -20 -28 -37 0
-3 -20 -28 -44 0
-3 -20 -28 -54 0
-3 -20 -31 -37 0
-3 -20 -31 -44 0
-3 -20 -31 -54 0
-3 -20 -37 -44 0
-3 -20 -37 -54 0
-3 -20 -44 -54 0
-3 -28 -31 -37 0
-3 -28 -31 -44 0
-3 -28 -31 -54 0
-3 -28 -37 -44 0
-3 -28 -37 -54 0
-3 -28 -44 -54 0
-3 -31 -37 -44 0
-3 -31 -37 -54 0
-3 -31 -44 -54 0
-3 -37 -44 -54 0
-11 -15 -20 -28 0
-11 -15 -20 -31 0
-11 -15 -20 -37 0
-11 -15 -20 -44 0
-11 -15 -20 -54 0
-11 -15 -28 -31 0
-11 -15 -28 -37 0
-11 -15 -28 -44 0
-11 -15 -28 -54 0
-11 -15 -31 -37 0
-11 -15 -31 -44 0
-11 -15 -31 -54 0
-11 -15 -37 -44 0
-11 -15 -37 -54 0
-11 -15 -44 -54 0
-11 -20 -28 -31 0
-11 -20 -28 -37 0
-11 -20 -28 -44 0
-11 -20 -28 -54 0
-11 -20 -31 -37 0
-11 -20 -31 -44 0
-11 -20 -31 -54 0
-11 -20 -37 -44 0
-11 -20 -37 -54 0
-11 -20 -44 -54 0
-11 -28 -31 -37 0
-11 -28 -31 -44 0
-11 -28 -31 -54 0
-11 -28 -37 -44 0
-11 -28 -37 -54 0
-11 -28 -44 -54 0
-11 -31 -37 -44 0
-11 -31 -37 -54 0
-11 -31 -44 -54 0
-11 -37 -44 -54 0
-15 -20 -28 -31 0
-15 -20 -28 -37 0
-15 -20 -28 -44 0
-15 -20 -28 -54 0
-15 -20 -31 -37 0
-15 -20 -31 -44 0
-15 -20 -31 -54 0
-15 -20 -37 -44 0
-15 -20 -37 -54 0
-15 -20 -44 -54 0
-15 -28 -31 -37 0
-15 -28 -31 -44 0
-15 -28 -31 -54 0
-15 -28 -37 -44 0
-15 -28 -37 -54 0
-15 -28 -44 -54 0
-15 -31 -37 -44 0
-15 -31 -37 -54 0
-15 -31 -44 -54 0
-15 -37 -44 -54 0
-20 -28 -31 -37 0
-20 -28 -31 -44 0
-20 -28 -31 -54 0
-20 -28 -37 -44 0
-20 -28 -37 -54 0
-20 -28 -44 -54 0
-20 -31 -37 -44 0
-20 -31 -37 -54 0
-20 -31 -44 -54 0
-20 -37 -44 -54 0
-28 -31 -37 -44 0
-28 -31 -37 -54 0
-28 -31 -44 -54 0
-28 -37 -44 -54 0
-31 -37 -44 -54 0
-4 -12 -16 -21 0
-4 -12 -16 -29 0
-4 -12 -16 -32 0
-4 -12 -16 -38 0
-4 -12 -16 -45 0
-4 -12 -16 -49 0
-4 -12 -21 -29 0
-4 -12 -21 -32 0
-4 -12 -21 -38 0
-4 -12 -21 -45 0
-4 -12 -21 -49 0
-4 -12 -29 -32 0
-4 -12 -29 -38 0
-4 -12 -29 -45 0
-4 -12 -29 -49 0
-4 -12 -32 -38 0
-4 -12 -32 -45 0
-4 -12 -32 -49 0
-4 -12 -38 -45 0
-4 -12 -38 -49 0
-4 -12 -45 -49 0
-4 -16 -21 -29 0
-4 -16 -21 -32 0
-4 -16 -21 -38 0
-4 -16 -21 -45 0
-4 -16 -21 -49 0
-4 -16 -29 -32 0
-4 -16 -29 -38 0
-4 -16 -29 -45 0
-4 -16 -29 -49 0
-4 -16 -32 -38 0
-4 -16 -32 -45 0
-4 -16 -32 -49 0
-4 -16 -38 -45 0
-4 -16 -38 -49 0
-4 -16 -45 -49 0
-4 -21 -29 -32 0
-4 -21 -29 -38 0
-4 -21 -29 -45 0
-4 -21 -29 -49 0
-4 -21 -32 -38 0
-4 -21 -32 -45 0
-4 -21 -32 -49 0
-4 -21 -38 -45 0
-4 -21 -38 -49 0
-4 -21 -45 -49 0
-4 -29 -32 -38 0
-4 -29 -32 -45 0
-4 -29 -32 -49 0
-4 -29 -38 -45 0
-4 -29 -38 -49 0
-4 -29 -45 -49 0
-4 -32 -38 -45 0
-4 -32 -38 -49 0
-4 -32 -45 -49 0
-4 -38 -45 -49 0
-12 -16 -21 -29 0
-12 -16 -21 -32 0
-12 -16 -21 -38 0
-12 -16 -21 -45 0
-12 -16 -21 -49 0
-12 -16 -29 -32 0
-12 -16 -29 -38 0
-12 -16 -29 -45 0
-12 -16 -29 -49 0
-12 -16 -32 -38 0
-12 -16 -32 -45 0
-12 -16 -32 -49 0
-12 -16 -38 -45 0
-12 -16 -38 -49 0
-12 -16 -45 -49 0
-12 -21 -29 -32 0
-12 -21 -29 -38 0
-12 -21 -29 -45 0
-12 -21 -29 -49 0
-12 -21 -32 -38 0
-12 -21 -32 -45 0
-12 -21 -32 -49 0
-12 -21 -38 -45 0
-12 -21 -38 -49 0
-12 -21 -45 -49 0
-12 -29 -32 -38 0
-12 -29 -32 -45 0
-12 -29 -32 -49 0
-12 -29 -38 -45 0
-12 -29 -38 -49 0
-12 -29 -45 -49 0
-12 -32 -38 -45 0
-12 -32 -38 -49 0
-12 -32 -45 -49 0
-12 -38 -45 -49 0
-16 -21 -29 -32 0
-16 -21 -29 -38 0
-16 -21 -29 -45 0
-16 -21 -29 -49 0
-16 -21 -32 -38 0
-16 -21 -32 -45 0
-16 -21 -32 -49 0
-16 -21 -38 -45 0
-16 -21 -38 -49 0
-16 -21 -45 -49 0
-16 -29 -32 -38 0
-16 -29 -32 -45 0
-16 -29 -32 -49 0
-16 -29 -38 -45 0
-16 -29 -38 -49 0
-16 -29 -45 -49 0
-16 -32 -38 -45 0
-16 -32 -38 -49 0
-16 -32 -45 -49 0
-16 -38 -45 -49 0
-21 -29 -32 -38 0
-21 -29 -32 -45 0
-21 -29 -32 -49 0
-21 -29 -38 -45 0
-21 -29 -38 -49 0
-21 -29 -45 -49 0
-21 -32 -38 -45 0
-21 -32 -38 -49 0
-21 -32 -45 -49 0
-21 -38 -45 -49 0
-29 -32 -38 -45 0
-29 -32 -38 -49 0
-29 -32 -45 -49 0
-29 -38 -45 -49 0
-32 -38 -45 -49 0
-5 -7 -17 -22 0
-5 -7 -17 -30 0
-5 -7 -17 -33 0
-5 -7 -17 -39 0
-5 -7 -17 -46 0
-5 -7 -17 -50 0
-5 -7 -22 -30 0
-5 -7 -22 -33 0
-5 -7 -22 -39 0
-5 -7 -22 -46 0
-5 -7 -22 -50 0
-5 -7 -30 -33 0
-5 -7 -30 -39 0
-5 -7 -30 -46 0
-5 -7 -30 -50 0
-5 -7 -33 -39 0
-5 -7 -33 -46 0
-5 -7 -33 -50 0
-5 -7 -39 -46 0
-5 -7 -39 -50 0
-5 -7 -46 -50 0
-5 -17 -22 -30 0
-5 -17 -22 -33 0
-5 -17 -22 -39 0
-5 -17 -22 -46 0
-5 -17 -22 -50 0
-5 -17 -30 -33 0
-5 -17 -30 -39 0
-5 -17 -30 -46 0
-5 -17 -30 -50 0
-5 -17 -33 -39 0
-5 -17 -33 -46 0
-5 -17 -33 -50 0
-5 -17 -39 -46 0
-5 -17 -39 -50 0
-5 -17 -46 -50 0
-5 -22 -30 -33 0
-5 -22 -30 -39 0
-5 -22 -30 -46 0
-5 -22 -30 -50 0
-5 -22 -33 -39 0
-5 -22 -33 -46 0
-5 -22 -33 -50 0
-5 -22 -39 -46 0
-5 -22 -39 -50 0
-5 -22 -46 -50 0
-5 -30 -33 -39 0
-5 -30 -33 -46 0
-5 -30 -33 -50 0
-5 -30 -39 -46 0
-5 -30 -39 -50 0
-5 -30 -46 -50 0
-5 -33 -39 -46 0
-5 -33 -39 -50 0
-5 -33 -46 -50 0
-5 -39 -46 -50 0
-7 -17 -22 -30 0
-7 -17 -22 -33 0
-7 -17 -22 -39 0
-7 -17 -22 -46 0
-7 -17 -22 -50 0
-7 -17 -30 -33 0
-7 -17 -30 -39 0
-7 -17 -30 -46 0
-7 -17 -30 -50 0
-7 -17 -33 -39 0
-7 -17 -33 -46 0
-7 -17 -33 -50 0
-7 -17 -39 -46 0
-7 -17 -39 -50 0
-7 -17 -46 -50 0
-7 -22 -30 -33 0
-7 -22 -30 -39 0
-7 -22 -30 -46 0
-7 -22 -30 -50 0
-7 -22 -33 -39 0
-7 -22 -33 -46 0
-7 -22 -33 -50 0
-7 -22 -39 -46 0
-7 -22 -39 -50 0
-7 -22 -46 -50 0
-7 -30 -33 -39 0
-7 -30 -33 -46 0
-7 -30 -33 -50 0
-7 -30 -39 -46 0
-7 -30 -39 -50 0
-7 -30 -46 -50 0
-7 -33 -39 -46 0
-7 -33 -39 -50 0
-7 -33 -46 -50 0
-7 -39 -46 -50 0
-17 -22 -30 -33 0
-17 -22 -30 -39 0
-17 -22 -30 -46 0
-17 -22 -30 -50 0
-17 -22 -33 -39 0
-17 -22 -33 -46 0
-17 -22 -33 -50 0
-17 -22 -39 -46 0
-17 -22 -39 -50 0
-17 -22 -46 -50 0
-17 -30 -33 -39 0
-17 -30 -33 -46 0
-17 -30 -33 -50 0
-17 -30 -39 -46 0
-17 -30 -39 -50 0
-17 -30 -46 -50 0
-17 -33 -39 -46 0
-17 -33 -39 -50 0
-17 -33 -46 -50 0
-17 -39 -46 -50 0
-22 -30 -33 -39 0
-22 -30 -33 -46 0
-22 -30 -33 -50 0
-22 -30 -39 -46 0
-22 -30 -39 -50 0
-22 -30 -46 -50 0
-22 -33 -39 -46 0
-22 -33 -39 -50 0
-22 -33 -46 -50 0
-22 -39 -46 -50 0
-30 -33 -39 -46 0
-30 -33 -39 -50 0
-30 -33 -46 -50 0
-30 -39 -46 -50 0
-33 -39 -46 -50 0
-6 -8 -18 -23 0
-6 -8 -18 -25 0
-6 -8 -18 -34 0
-6 -8 -18 -40 0
-6 -8 -18 -47 0
-6 -8 -18 -51 0
-6 -8 -23 -25 0
-6 -8 -23 -34 0
-6 -8 -23 -40 0
-6 -8 -23 -47 0
-6 -8 -23 -51 0
-6 -8 -25 -34 0
-6 -8 -25 -40 0
-6 -8 -25 -47 0
-6 -8 -25 -51 0
-6 -8 -34 -40 0
-6 -8 -34 -47 0
-6 -8 -34 -51 0
-6 -8 -40 -47 0
-6 -8 -40 -51 0
-6 -8 -47 -51 0
-6 -18 -23 -25 0
-6 -18 -23 -34 0
-6 -18 -23 -40 0
-6 -18 -23 -47 0
-6 -18 -23 -51 0
-6 -18 -25 -34 0
-6 -18 -25 -40 0
-6 -18 -25 -47 0
-6 -18 -25 -51 0
-6 -18 -34 -40 0
-6 -18 -34 -47 0
-6 -18 -34 -51 0
-6 -18 -40 -47 0
-6 -18 -40 -51 0
-6 -18 -47 -51 0
-6 -23 -25 -34 0
-6 -23 -25 -40 0
-6 -23 -25 -47 0
-6 -23 -25 -51 0
-6 -23 -34 -40 0
-6 -23 -34 -47 0
-6 -23 -34 -51 0
-6 -23 -40 -47 0
-6 -23 -40 -51 0
-6 -23 -47 -51 0
-6 -25 -34 -40 0
-6 -25 -34 -47 0
-6 -25 -34 -51 0
-6 -25 -40 -47 0
-6 -25 -40 -51 0
-6 -25 -47 -51 0
-6 -34 -40 -47 0
-6 -34 -40 -51 0
-6 -34 -47 -51 0
-6 -40 -47 -51 0
-8 -18 -23 -25 0
-8 -18 -23 -34 0
-8 -18 -23 -40 0
-8 -18 -23 -47 0
-8 -18 -23 -51 0
-8 -18 -25 -34 0
-8 -18 -25 -40 0
-8 -18 -25 -47 0
-8 -18 -25 -51 0
-8 -18 -34 -40 0
-8 -18 -34 -47 0
-8 -18 -34 -51 0
-8 -18 -40 -47 0
-8 -18 -40 -51 0
-8 -18 -47 -51 0
-8 -23 -25 -34 0
-8 -23 -25 -40 0
-8 -23 -25 -47 0
-8 -23 -25 -51 0
-8 -23 -34 -40 0
-8 -23 -34 -47 0
-8 -23 -34 -51 0
-8 -23 -40 -47 0
-8 -23 -40 -51 0
-8 -23 -47 -51 0
-8 -25 -34 -40 0
-8 -25 -34 -47 0
-8 -25 -34 -51 0
-8 -25 -40 -47 0
-8 -25 -40 -51 0
-8 -25 -47 -51 0
-8 -34 -40 -47 0
-8 -34 -40 -51 0
-8 -34 -47 -51 0
-8 -40 -47 -51 0
-18 -23 -25 -34 0
-18 -23 -25 -40 0
-18 -23 -25 -47 0
-18 -23 -25 -51 0
-18 -23 -34 -40 0
-18 -23 -34 -47 0
-18 -23 -34 -51 0
-18 -23 -40 -47 0
-18 -23 -40 -51 0
-18 -23 -47 -51 0
-18 -25 -34 -40 0
-18 -25 -34 -47 0
-18 -25 -34 -51 0
-18 -25 -40 -47 0
-18 -25 -40 -51 0
-18 -25 -47 -51 0
-18 -34 -40 -47 0
-18 -34 -40 -51 0
-18 -34 -47 -51 0
-18 -40 -47 -51 0
-23 -25 -34 -40 0
-23 -25 -34 -47 0
-23 -25 -34 -51 0
-23 -25 -40 -47 0
-23 -25 -40 -51 0
-23 -25 -47 -51 0
-23 -34 -40 -47 0
-23 -34 -40 -51 0
-23 -34 -47 -51 0
-23 -40 -47 -51 0
-25 -34 -40 -47 0
-25 -34 -40 -51 0
-25 -34 -47 -51 0
-25 -40 -47 -51 0
-34 -40 -47 -51 0
-1 -9 -14 -24 0
-1 -9 -14 -28 0
-1 -9 -14 -31 0
-1 -9 -14 -40 0
-1 -9 -14 -48 0
-1 -9 -14 -50 0
-1 -9 -24 -28 0
-1 -9 -24 -31 0
-1 -9 -24 -40 0
-1 -9 -24 -48 0
-1 -9 -24 -50 0
-1 -9 -28 -31 0
-1 -9 -28 -40 0
-1 -9 -28 -48 0
-1 -9 -28 -50 0
-1 -9 -31 -40 0
-1 -9 -31 -48 0
-1 -9 -31 -50 0
-1 -9 -40 -48 0
-1 -9 -40 -50 0
-1 -9 -48 -50 0
-1 -14 -24 -28 0
-1 -14 -24 -31 0
-1 -14 -24 -40 0
-1 -14 -24 -48 0
-1 -14 -24 -50 0
-1 -14 -28 -31 0
-1 -14 -28 -40 0
-1 -14 -28 -48 0
-1 -14 -28 -50 0
-1 -14 -31 -40 0
-1 -14 -31 -48 0
-1 -14 -31 -50 0
-1 -14 -40 -48 0
-1 -14 -40 -50 0
-1 -14 -48 -50 0
-1 -24 -28 -31 0
-1 -24 -28 -40 0
-1 -24 -28 -48 0
-1 -24 -28 -50 0
-1 -24 -31 -40 0
-1 -24 -31 -48 0
-1 -24 -31 -50 0
-1 -24 -40 -48 0
-1 -24 -40 -50 0
-1 -24 -48 -50 0
-1 -28 -31 -40 0
-1 -28 -31 -48 0
-1 -28 -31 -50 0
-1 -28 -40 -48 0
-1 -28 -40 -50 0
-1 -28 -48 -50 0
-1 -31 -40 -48 0
-1 -31 -40 -50 0
-1 -31 -48 -50 0
-1 -40 -48 -50 0
-9 -14 -24 -28 0
-9 -14 -24 -31 0
-9 -14 -24 -40 0
-9 -14 -24 -48 0
-9 -14 -24 -50 0
-9 -14 -28 -31 0
-9 -14 -28 -40 0
-9 -14 -28 -48 0
-9 -14 -28 -50 0
-9 -14 -31 -40 0
-9 -14 -31 -48 0
-9 -14 -31 -50 0
-9 -14 -40 -48 0
-9 -14 -40 -50 0
-9 -14 -48 -50 0
-9 -24 -28 -31 0
-9 -24 -28 -40 0
-9 -24 -28 -48 0
-9 -24 -28 -50 0
-9 -24 -31 -40 0
-9 -24 -31 -48 0
-9 -24 -31 -50 0
-9 -24 -40 -48 0
-9 -24 -40 -50 0
-9 -24 -48 -50 0
-9 -28 -31 -40 0
-9 -28 -31 -48 0
-9 -28 -31 -50 0
-9 -28 -40 -48 0
-9 -28 -40 -50 0
-9 -28 -48 -50 0
-9 -31 -40 -48 0
-9 -31 -40 -50 0
-9 -31 -48 -50 0
-9 -40 -48 -50 0
-14 -24 -28 -31 0
-14 -24 -28 -40 0
-14 -24 -28 -48 0
-14 -24 -28 -50 0
-14 -24 -31 -40 0
-14 -24 -31 -48 0
-14 -24 -31 -50 0
-14 -24 -40 -48 0
-14 -24 -40 -50 0
-14 -24 -48 -50 0
-14 -28 -31 -40 0
-14 -28 -31 -48 0
-14 -28 -31 -50 0
-14 -28 -40 -48 0
-14 -28 -40 -50 0
-14 -28 -48 -50 0
-14 -31 -40 -48 0
-14 -31 -40 -50 0
-14 -31 -48 -50 0
-14 -40 -48 -50 0
-24 -28 -31 -40 0
-24 -28 -31 -48 0
-24 -28 -31 -50 0
-24 -28 -40 -48 0
-24 -28 -40 -50 0
-24 -28 -48 -50 0
-24 -31 -40 -48 0
-24 -31 -40 -50 0
-24 -31 -48 -50 0
-24 -40 -48 -50 0
-28 -31 -40 -48 0
-28 -31 -40 -50 0
-28 -31 -48 -50 0
-28 -40 -48 -50 0
-31 -40 -48 -50 0
-2 -10 -15 -19 0
-2 -10 -15 -29 0
-2 -10 -15 -32 0
-2 -10 -15 -41 0
-2 -10 -15 -43 0
-2 -10 -15 -51 0
-2 -10 -19 -29 0
-2 -10 -19 -32 0
-2 -10 -19 -41 0
-2 -10 -19 -43 0
-2 -10 -19 -51 0
-2 -10 -29 -32 0
-2 -10 -29 -41 0
-2 -10 -29 -43 0
-2 -10 -29 -51 0
-2 -10 -32 -41 0
-2 -10 -32 -43 0
-2 -10 -32 -51 0
-2 -10 -41 -43 0
-2 -10 -41 -51 0
-2 -10 -43 -51 0
-2 -15 -19 -29 0
-2 -15 -19 -32 0
-2 -15 -19 -41 0
-2 -15 -19 -43 0
-2 -15 -19 -51 0
-2 -15 -29 -32 0
-2 -15 -29 -41 0
-2 -15 -29 -43 0
-2 -15 -29 -51 0
-2 -15 -32 -41 0
-2 -15 -32 -43 0
-2 -15 -32 -51 0
-2 -15 -41 -43 0
-2 -15 -41 -51 0
-2 -15 -43 -51 0
-2 -19 -29 -32 0
-2 -19 -29 -41 0
-2 -19 -29 -43 0
-2 -19 -29 -51 0
-2 -19 -32 -41 0
-2 -19 -32 -43 0
-2 -19 -32 -51 0
-2 -19 -41 -43 0
-2 -19 -41 -51 0
-2 -19 -43 -51 0
-2 -29 -32 -41 0
-2 -29 -32 -43 0
-2 -29 -32 -51 0
-2 -29 -41 -43 0
-2 -29 -41 -51 0
-2 -29 -43 -51 0
-2 -32 -41 -43 0
-2 -32 -41 -51 0
-2 -32 -43 -51 0
-2 -41 -43 -51 0
-10 -15 -19 -29 0
-10 -15 -19 -32 0
-10 -15 -19 -41 0
-10 -15 -19 -43 0
-10 -15 -19 -51 0
-10 -15 -29 -32 0
-10 -15 -29 -41 0
-10 -15 -29 -43 0
-10 -15 -29 -51 0
-10 -15 -32 -41 0
-10 -15 -32 -43 0
-10 -15 -32 -51 0
-10 -15 -41 -43 0
-10 -15 -41 -51 0
-10 -15 -43 -51 0
-10 -19 -29 -32 0
-10 -19 -29 -41 0
-10 -19 -29 -43 0
-10 -19 -29 -51 0
-10 -19 -32 -41 0
-10 -19 -32 -43 0
-10 -19 -32 -51 0
-10 -19 -41 -43 0
-10 -19 -41 -51 0
-10 -19 -43 -51 0
-10 -29 -32 -41 0
-10 -29 -32 -43 0
-10 -29 -32 -51 0
-10 -29 -41 -43 0
-10 -29 -41 -51 0
-10 -29 -43 -51 0
-10 -32 -41 -43 0
-10 -32 -41 -51 0
-10 -32 -43 -51 0
-10 -41 -43 -51 0
-15 -19 -29 -32 0
-15 -19 -29 -41 0
-15 -19 -29 -43 0
-15 -19 -29 -51 0
-15 -19 -32 -41 0
-15 -19 -32 -43 0
-15 -19 -32 -51 0
-15 -19 -41 -43 0
-15 -19 -41 -51 0
-15 -19 -43 -51 0
-15 -29 -32 -41 0
-15 -29 -32 -43 0
-15 -29 -32 -51 0
-15 -29 -41 -43 0
-15 -29 -41 -51 0
-15 -29 -43 -51 0
-15 -32 -41 -43 0
-15 -32 -41 -51 0
-15 -32 -43 -51 0
-15 -41 -43 -51 0
-19 -29 -32 -41 0
-19 -29 -32 -43 0
-19 -29 -32 -51 0
-19 -29 -41 -43 0
-19 -29 -41 -51 0
-19 -29 -43 -51 0
-19 -32 -41 -43 0
-19 -32 -41 -51 0
-19 -32 -43 -51 0
-19 -41 -43 -51 0
-29 -32 -41 -43 0
-29 -32 -41 -51 0
-29 -32 -43 -51 0
-29 -41 -43 -51 0
-32 -41 -43 -51 0
-3 -11 -16 -20 0
-3 -11 -16 -30 0
-3 -11 -16 -33 0
-3 -11 -16 -42 0
-3 -11 -16 -44 0
-3 -11 -16 -52 0
-3 -11 -20 -30 0
-3 -11 -20 -33 0
-3 -11 -20 -42 0
-3 -11 -20 -44 0
-3 -11 -20 -52 0
-3 -11 -30 -33 0
-3 -11 -30 -42 0
-3 -11 -30 -44 0
-3 -11 -30 -52 0
-3 -11 -33 -42 0
-3 -11 -33 -44 0
-3 -11 -33 -52 0
-3 -11 -42 -44 0
-3 -11 -42 -52 0
-3 -11 -44 -52 0
-3 -16 -20 -30 0
-3 -16 -20 -33 0
-3 -16 -20 -42 0
-3 -16 -20 -44 0
-3 -16 -20 -52 0
-3 -16 -30 -33 0
-3 -16 -30 -42 0
-3 -16 -30 -44 0
-3 -16 -30 -52 0
-3 -16 -33 -42 0
-3 -16 -33 -44 0
-3 -16 -33 -52 0
-3 -16 -42 -44 0
-3 -16 -42 -52 0
-3 -16 -44 -52 0
-3 -20 -30 -33 0
-3 -20 -30 -42 0
-3 -20 -30 -44 0
-3 -20 -30 -52 0
-3 -20 -33 -42 0
-3 -20 -33 -44 0
-3 -20 -33 -52 0
-3 -20 -42 -44 0
-3 -20 -42 -52 0
-3 -20 -44 -52 0
-3 -30 -33 -42 0
-3 -30 -33 -44 0
-3 -30 -33 -52 0
-3 -30 -42 -44 0
-3 -30 -42 -52 0
-3 -30 -44 -52 0
-3 -33 -42 -44 0
-3 -33 -42 -52 0
-3 -33 -44 -52 0
-3 -42 -44 -52 0
-11 -16 -20 -30 0
-11 -16 -20 -33 0
-11 -16 -20 -42 0
-11 -16 -20 -44 0
-11 -16 -20 -52 0
-11 -16 -30 -33 0
-11 -16 -30 -42 0
-11 -16 -30 -44 0
-11 -16 -30 -52 0
-11 -16 -33 -42 0
-11 -16 -33 -44 0
-11 -16 -33 -52 0
-11 -16 -42 -44 0
-11 -16 -42 -52 0
-11 -16 -44 -52 0
-11 -20 -30 -33 0
-11 -20 -30 -42 0
-11 -20 -30 -44 0
-11 -20 -30 -52 0
-11 -20 -33 -42 0
-11 -20 -33 -44 0
-11 -20 -33 -52 0
-11 -20 -42 -44 0
-11 -20 -42 -52 0
-11 -20 -44 -52 0
-11 -30 -33 -42 0
-11 -30 -33 -44 0
-11 -30 -33 -52 0
-11 -30 -42 -44 0
-11 -30 -42 -52 0
-11 -30 -44 -52 0
-11 -33 -42 -44 0
-11 -33 -42 -52 0
-11 -33 -44 -52 0
-11 -42 -44 -52 0
-16 -20 -30 -33 0
-16 -20 -30 -42 0
-16 -20 -30 -44 0
-16 -20 -30 -52 0
-16 -20 -33 -42 0
-16 -20 -33 -44 0
-16 -20 -33 -52 0
-16 -20 -42 -44 0
-16 -20 -42 -52 0
-16 -20 -44 -52 0
-16 -30 -33 -42 0
-16 -30 -33 -44 0
-16 -30 -33 -52 0
-16 -30 -42 -44 0
-16 -30 -42 -52 0
-16 -30 -44 -52 0
-16 -33 -42 -44 0
-16 -33 -42 -52 0
-16 -33 -44 -52 0
-16 -42 -44 -52 0
-20 -30 -33 -42 0
-20 -30 -33 -44 0
-20 -30 -33 -52 0
-20 -30 -42 -44 0
-20 -30 -42 -52 0
-20 -30 -44 -52 0
-20 -33 -42 -44 0
-20 -33 -42 -52 0
-20 -33 -44 -52 0
-20 -42 -44 -52 0
-30 -33 -42 -44 0
-30 -33 -42 -52 0
-30 -33 -44 -52 0
-30 -42 -44 -52 0
-33 -42 -44 -52 0
-4 -12 -17 -21 0
-4 -12 -17 -25 0
-4 -12 -17 -34 0
-4 -12 -17 -37 0
-4 -12 -17 -45 0
-4 -12 -17 -53 0
-4 -12 -21 -25 0
-4 -12 -21 -34 0
-4 -12 -21 -37 0
-4 -12 -21 -45 0
-4 -12 -21 -53 0
-4 -12 -25 -34 0
-4 -12 -25 -37 0
-4 -12 -25 -45 0
-4 -12 -25 -53 0
-4 -12 -34 -37 0
-4 -12 -34 -45 0
-4 -12 -34 -53 0
-4 -12 -37 -45 0
-4 -12 -37 -53 0
-4 -12 -45 -53 0
-4 -17 -21 -25 0
-4 -17 -21 -34 0
-4 -17 -21 -37 0
-4 -17 -21 -45 0
-4 -17 -21 -53 0
-4 -17 -25 -34 0
-4 -17 -25 -37 0
-4 -17 -25 -45 0
-4 -17 -25 -53 0
-4 -17 -34 -37 0
-4 -17 -34 -45 0
-4 -17 -34 -53 0
-4 -17 -37 -45 0
-4 -17 -37 -53 0
-4 -17 -45 -53 0
-4 -21 -25 -34 0
-4 -21 -25 -37 0
-4 -21 -25 -45 0
-4 -21 -25 -53 0
-4 -21 -34 -37 0
-4 -21 -34 -45 0
-4 -21 -34 -53 0
-4 -21 -37 -45 0
-4 -21 -37 -53 0
-4 -21 -45 -53 0
-4 -25 -34 -37 0
-4 -25 -34 -45 0
-4 -25 -34 -53 0
-4 -25 -37 -45 0
-4 -25 -37 -53 0
-4 -25 -45 -53 0
-4 -34 -37 -45 0
-4 -34 -37 -53 0
-4 -34 -45 -53 0
-4 -37 -45 -53 0
-12 -17 -21 -25 0
-12 -17 -21 -34 0
-12 -17 -21 -37 0
-12 -17 -21 -45 0
-12 -17 -21 -53 0
-12 -17 -25 -34 0
-12 -17 -25 -37 0
-12 -17 -25 -45 0
-12 -17 -25 -53 0
-12 -17 -34 -37 0
-12 -17 -34 -45 0
-12 -17 -34 -53 0
-12 -17 -37 -45 0
-12 -17 -37 -53 0
-12 -17 -45 -53 0
-12 -21 -25 -34 0
-12 -21 -25 -37 0
-12 -21 -25 -45 0
-12 -21 -25 -53 0
-12 -21 -34 -37 0
-12 -21 -34 -45 0
-12 -21 -34 -53 0
-12 -21 -37 -45 0
-12 -21 -37 -53 0
-12 -21 -45 -53 0
-12 -25 -34 -37 0
-12 -25 -34 -45 0
-12 -25 -34 -53 0
-12 -25 -37 -45 0
-12 -25 -37 -53 0
-12 -25 -45 -53 0
-12 -34 -37 -45 0
-12 -34 -37 -53 0
-12 -34 -45 -53 0
-12 -37 -45 -53 0
-17 -21 -25 -34 0
-17 -21 -25 -37 0
-17 -21 -25 -45 0
-17 -21 -25 -53 0
-17 -21 -34 -37 0
-17 -21 -34 -45 0
-17 -21 -34 -53 0
-17 -21 -37 -45 0
-17 -21 -37 -53 0
-17 -21 -45 -53 0
-17 -25 -34 -37 0
-17 -25 -34 -45 0
-17 -25 -34 -53 0
-17 -25 -37 -45 0
-17 -25 -37 -53 0
-17 -25 -45 -53 0
-17 -34 -37 -45 0
-17 -34 -37 -53 0
-17 -34 -45 -53 0
-17 -37 -45 -53 0
-21 -25 -34 -37 0
-21 -25 -34 -45 0
-21 -25 -34 -53 0
-21 -25 -37 -45 0
-21 -25 -37 -53 0
-21 -25 -45 -53 0
-21 -34 -37 -45 0
-21 -34 -37 -53 0
-21 -34 -45 -53 0
-21 -37 -45 -53 0
-25 -34 -37 -45 0
-25 -34 -37 -53 0
-25 -34 -45 -53 0
-25 -37 -45 -53 0
-34 -37 -45 -53 0
-5 -7 -18 -22 0
-5 -7 -18 -26 0
-5 -7 -18 -35 0
-5 -7 -18 -38 0
-5 -7 -18 -46 0
-5 -7 -18 -54 0
-5 -7 -22 -26 0
-5 -7 -22 -35 0
-5 -7 -22 -38 0
-5 -7 -22 -46 0
-5 -7 -22 -54 0
-5 -7 -26 -35 0
-5 -7 -26 -38 0
-5 -7 -26 -46 0
-5 -7 -26 -54 0
-5 -7 -35 -38 0
-5 -7 -35 -46 0
-5 -7 -35 -54 0
-5 -7 -38 -46 0
-5 -7 -38 -54 0
-5 -7 -46 -54 0
-5 -18 -22 -26 0
-5 -18 -22 -35 0
-5 -18 -22 -38 0
-5 -18 -22 -46 0
-5 -18 -22 -54 0
-5 -18 -26 -35 0
-5 -18 -26 -38 0
-5 -18 -26 -46 0
-5 -18 -26 -54 0
-5 -18 -35 -38 0
-5 -18 -35 -46 0
-5 -18 -35 -54 0
-5 -18 -38 -46 0
-5 -18 -38 -54 0
-5 -18 -46 -54 0
-5 -22 -26 -35 0
-5 -22 -26 -38 0
-5 -22 -26 -46 0
-5 -22 -26 -54 0
-5 -22 -35 -38 0
-5 -22 -35 -46 0
-5 -22 -35 -54 0
-5 -22 -38 -46 0
-5 -22 -38 -54 0
-5 -22 -46 -54 0
-5 -26 -35 -38 0
-5 -26 -35 -46 0
-5 -26 -35 -54 0
-5 -26 -38 -46 0
-5 -26 -38 -54 0
-5 -26 -46 -54 0
-5 -35 -38 -46 0
-5 -35 -38 -54 0
-5 -35 -46 -54 0
-5 -38 -46 -54 0
-7 -18 -22 -26 0
-7 -18 -22 -35 0
-7 -18 -22 -38 0
-7 -18 -22 -46 0
-7 -18 -22 -54 0
-7 -18 -26 -35 0
-7 -18 -26 -38 0
-7 -18 -26 -46 0
-7 -18 -26 -54 0
-7 -18 -35 -38 0
-7 -18 -35 -46 0
-7 -18 -35 -54 0
-7 -18 -38 -46 0
-7 -18 -38 -54 0
-7 -18 -46 -54 0
-7 -22 -26 -35 0
-7 -22 -26 -38 0
-7 -22 -26 -46 0
-7 -22 -26 -54 0
-7 -22 -35 -38 0
-7 -22 -35 -46 0
-7 -22 -35 -54 0
-7 -22 -38 -46 0
-7 -22 -38 -54 0
-7 -22 -46 -54 0
-7 -26 -35 -38 0
-7 -26 -35 -46 0
-7 -26 -35 -54 0
-7 -26 -38 -46 0
-7 -26 -38 -54 0
-7 -26 -46 -54 0
-7 -35 -38 -46 0
-7 -35 -38 -54 0
-7 -35 -46 -54 0
-7 -38 -46 -54 0
-18 -22 -26 -35 0
-18 -22 -26 -38 0
-18 -22 -26 -46 0
-18 -22 -26 -54 0
-18 -22 -35 -38 0
-18 -22 -35 -46 0
-18 -22 -35 -54 0
-18 -22 -38 -46 0
-18 -22 -38 -54 0
-18 -22 -46 -54 0
-18 -26 -35 -38 0
-18 -26 -35 -46 0
-18 -26 -35 -54 0
-18 -26 -38 -46 0
-18 -26 -38 -54 0
-18 -26 -46 -54 0
-18 -35 -38 -46 0
-18 -35 -38 -54 0
-18 -35 -46 -54 0
-18 -38 -46 -54 0
-22 -26 -35 -38 0
-22 -26 -35 -46 0
-22 -26 -35 -54 0
-22 -26 -38 -46 0
-22 -26 -38 -54 0
-22 -26 -46 -54 0
-22 -35 -38 -46 0
-22 -35 -38 -54 0
-22 -35 -46 -54 0
-22 -38 -46 -54 0
-26 -35 -38 -46 0
-26 -35 -38 -54 0
-26 -35 -46 -54 0
-26 -38 -46 -54 0
-35 -38 -46 -54 0
-6 -8 -13 -23 0
-6 -8 -13 -27 0
-6 -8 -13 -36 0
-6 -8 -13 -39 0
-6 -8 -13 -47 0
-6 -8 -13 -49 0
-6 -8 -23 -27 0
-6 -8 -23 -36 0
-6 -8 -23 -39 0
-6 -8 -23 -47 0
-6 -8 -23 -49 0
-6 -8 -27 -36 0
-6 -8 -27 -39 0
-6 -8 -27 -47 0
-6 -8 -27 -49 0
-6 -8 -36 -39 0
-6 -8 -36 -47 0
-6 -8 -36 -49 0
-6 -8 -39 -47 0
-6 -8 -39 -49 0
-6 -8 -47 -49 0
-6 -13 -23 -27 0
-6 -13 -23 -36 0
-6 -13 -23 -39 0
-6 -13 -23 -47 0
-6 -13 -23 -49 0
-6 -13 -27 -36 0
-6 -13 -27 -39 0
-6 -13 -27 -47 0
-6 -13 -27 -49 0
-6 -13 -36 -39 0
-6 -13 -36 -47 0
-6 -13 -36 -49 0
-6 -13 -39 -47 0
-6 -13 -39 -49 0
-6 -13 -47 -49 0
-6 -23 -27 -36 0
-6 -23 -27 -39 0
-6 -23 -27 -47 0
-6 -23 -27 -49 0
-6 -23 -36 -39 0
-6 -23 -36 -47 0
-6 -23 -36 -49 0
-6 -23 -39 -47 0
-6 -23 -39 -49 0
-6 -23 -47 -49 0
-6 -27 -36 -39 0
-6 -27 -36 -47 0
-6 -27 -36 -49 0
-6 -27 -39 -47 0
-6 -27 -39 -49 0
-6 -27 -47 -49 0
-6 -36 -39 -47 0
-6 -36 -39 -49 0
-6 -36 -47 -49 0
-6 -39 -47 -49 0
-8 -13 -23 -27 0
-8 -13 -23 -36 0
-8 -13 -23 -39 0
-8 -13 -23 -47 0
-8 -13 -23 -49 0
-8 -13 -27 -36 0
-8 -13 -27 -39 0
-8 -13 -27 -47 0
-8 -13 -27 -49 0
-8 -13 -36 -39 0
-8 -13 -36 -47 0
-8 -13 -36 -49 0
-8 -13 -39 -47 0
-8 -13 -39 -49 0
-8 -13 -47 -49 0
-8 -23 -27 -36 0
-8 -23 -27 -39 0
-8 -23 -27 -47 0
-8 -23 -27 -49 0
-8 -23 -36 -39 0
-8 -23 -36 -47 0
-8 -23 -36 -49 0
-8 -23 -39 -47 0
-8 -23 -39 -49 0
-8 -23 -47 -49 0
-8 -27 -36 -39 0
-8 -27 -36 -47 0
-8 -27 -36 -49 0
-8 -27 -39 -47 0
-8 -27 -39 -49 0
-8 -27 -47 -49 0
-8 -36 -39 -47 0
-8 -36 -39 -49 0
-8 -36 -47 -49 0
-8 -39 -47 -49 0
-13 -23 -27 -36 0
-13 -23 -27 -39 0
-13 -23 -27 -47 0
-13 -23 -27 -49 0
-13 -23 -36 -39 0
-13 -23 -36 -47 0
-13 -23 -36 -49 0
-13 -23 -39 -47 0
-13 -23 -39 -49 0
-13 -23 -47 -49 0
-13 -27 -36 -39 0
-13 -27 -36 -47 0
-13 -27 -36 -49 0
-13 -27 -39 -47 0
-13 -27 -39 -49 0
-13 -27 -47 -49 0
-13 -36 -39 -47 0
-13 -36 -39 -49 0
-13 -36 -47 -49 0
-13 -39 -47 -49 0
-23 -27 -36 -39 0
-23 -27 -36 -47 0
-23 -27 -36 -49 0
-23 -27 -39 -47 0
-23 -27 -39 -49 0
-23 -27 -47 -49 0
-23 -36 -39 -47 0
-23 -36 -39 -49 0
-23 -36 -47 -49 0
-23 -39 -47 -49 0
-27 -36 -39 -47 0
-27 -36 -39 -49 0
-27 -36 -47 -49 0
-27 -39 -47 -49 0
-36 -39 -47 -49 0
-1 -7 -14 -23 0
-1 -7 -14 -30 0
-1 -7 -14 -31 0
-1 -7 -14 -38 0
-1 -7 -14 -43 0
-1 -7 -14 -49 0
-1 -7 -23 -30 0
-1 -7 -23 -31 0
-1 -7 -23 -38 0
-1 -7 -23 -43 0
-1 -7 -23 -49 0
-1 -7 -30 -31 0
-1 -7 -30 -38 0
-1 -7 -30 -43 0
-1 -7 -30 -49 0
-1 -7 -31 -38 0
-1 -7 -31 -43 0
-1 -7 -31 -49 0
-1 -7 -38 -43 0
-1 -7 -38 -49 0
-1 -7 -43 -49 0
-1 -14 -23 -30 0
-1 -14 -23 -31 0
-1 -14 -23 -38 0
-1 -14 -23 -43 0
-1 -14 -23 -49 0
-1 -14 -30 -31 0
-1 -14 -30 -38 0
-1 -14 -30 -43 0
-1 -14 -30 -49 0
-1 -14 -31 -38 0
-1 -14 -31 -43 0
-1 -14 -31 -49 0
-1 -14 -38 -43 0
-1 -14 -38 -49 0
-1 -14 -43 -49 0
-1 -23 -30 -31 0
-1 -23 -30 -38 0
-1 -23 -30 -43 0
-1 -23 -30 -49 0
-1 -23 -31 -38 0
-1 -23 -31 -43 0
-1 -23 -31 -49 0
-1 -23 -38 -43 0
-1 -23 -38 -49 0
-1 -23 -43 -49 0
-1 -30 -31 -38 0
-1 -30 -31 -43 0
-1 -30 -31 -49 0
-1 -30 -38 -43 0
-1 -30 -38 -49 0
-1 -30 -43 -49 0
-1 -31 -38 -43 0
-1 -31 -38 -49 0
-1 -31 -43 -49 0
-1 -38 -43 -49 0
-7 -14 -23 -30 0
-7 -14 -23 -31 0
-7 -14 -23 -38 0
-7 -14 -23 -43 0
-7 -14 -23 -49 0
-7 -14 -30 -31 0
-7 -14 -30 -38 0
-7 -14 -30 -43 0
-7 -14 -30 -49 0
-7 -14 -31 -38 0
-7 -14 -31 -43 0
-7 -14 -31 -49 0
-7 -14 -38 -43 0
-7 -14 -38 -49 0
-7 -14 -43 -49 0
-7 -23 -30 -31 0
-7 -23 -30 -38 0
-7 -23 -30 -43 0
-7 -23 -30 -49 0
-7 -23 -31 -38 0
-7 -23 -31 -43 0
-7 -23 -31 -49 0
-7 -23 -38 -43 0
-7 -23 -38 -49 0
-7 -23 -43 -49 0
-7 -30 -31 -38 0
-7 -30 -31 -43 0
-7 -30 -31 -49 0
-7 -30 -38 -43 0
-7 -30 -38 -49 0
-7 -30 -43 -49 0
-7 -31 -38 -43 0
-7 -31 -38 -49 0
-7 -31 -43 -49 0
-7 -38 -43 -49 0
-14 -23 -30 -31 0
-14 -23 -30 -38 0
-14 -23 -30 -43 0
-14 -23 -30 -49 0
-14 -23 -31 -38 0
-14 -23 -31 -43 0
-14 -23 -31 -49 0
-14 -23 -38 -43 0
-14 -23 -38 -49 0
-14 -23 -43 -49 0
-14 -30 -31 -38 0
-14 -30 -31 -43 0
-14 -30 -31 -49 0
-14 -30 -38 -43 0
-14 -30 -38 -49 0
-14 -30 -43 -49 0
-14 -31 -38 -43 0
-14 -31 -38 -49 0
-14 -31 -43 -49 0
-14 -38 -43 -49 0
-23 -30 -31 -38 0
-23 -30 -31 -43 0
-23 -30 -31 -49 0
-23 -30 -38 -43 0
-23 -30 -38 -49 0
-23 -30 -43 -49 0
-23 -31 -38 -43 0
-23 -31 -38 -49 0
-23 -31 -43 -49 0
-23 -38 -43 -49 0
-30 -31 -38 -43 0
-30 -31 -38 -49 0
-30 -31 -43 -49 0
-30 -38 -43 -49 0
-31 -38 -43 -49 0
-2 -8 -15 -24 0
-2 -8 -15 -25 0
-2 -8 -15 -32 0
-2 -8 -15 -39 0
-2 -8 -15 -44 0
-2 -8 -15 -50 0
-2 -8 -24 -25 0
-2 -8 -24 -32 0
-2 -8 -24 -39 0
-2 -8 -24 -44 0
-2 -8 -24 -50 0
-2 -8 -25 -32 0
-2 -8 -25 -39 0
-2 -8 -25 -44 0
-2 -8 -25 -50 0
-2 -8 -32 -39 0
-2 -8 -32 -44 0
-2 -8 -32 -50 0
-2 -8 -39 -44 0
-2 -8 -39 -50 0
-2 -8 -44 -50 0
-2 -15 -24 -25 0
-2 -15 -24 -32 0
-2 -15 -24 -39 0
-2 -15 -24 -44 0
-2 -15 -24 -50 0
-2 -15 -25 -32 0
-2 -15 -25 -39 0
-2 -15 -25 -44 0
-2 -15 -25 -50 0
-2 -15 -32 -39 0
-2 -15 -32 -44 0
-2 -15 -32 -50 0
-2 -15 -39 -44 0
-2 -15 -39 -50 0
-2 -15 -44 -50 0
-2 -24 -25 -32 0
-2 -24 -25 -39 0
-2 -24 -25 -44 0
-2 -24 -25 -50 0
-2 -24 -32 -39 0
-2 -24 -32 -44 0
-2 -24 -32 -50 0
-2 -24 -39 -44 0
-2 -24 -39 -50 0
-2 -24 -44 -50 0
-2 -25 -32 -39 0
-2 -25 -32 -44 0
-2 -25 -32 -50 0
-2 -25 -39 -44 0
-2 -25 -39 -50 0
-2 -25 -44 -50 0
-2 -32 -39 -44 0
-2 -32 -39 -50 0
-2 -32 -44 -50 0
-2 -39 -44 -50 0
-8 -15 -24 -25 0
-8 -15 -24 -32 0
-8 -15 -24 -39 0
-8 -15 -24 -44 0
-8 -15 -24 -50 0
-8 -15 -25 -32 0
-8 -15 -25 -39 0
-8 -15 -25 -44 0
-8 -15 -25 -50 0
-8 -15 -32 -39 0
-8 -15 -32 -44 0
-8 -15 -32 -50 0
-8 -15 -39 -44 0
-8 -15 -39 -50 0
-8 -15 -44 -50 0
-8 -24 -25 -32 0
-8 -24 -25 -39 0
-8 -24 -25 -44 0
-8 -24 -25 -50 0
-8 -24 -32 -39 0
-8 -24 -32 -44 0
-8 -24 -32 -50 0
-8 -24 -39 -44 0
-8 -24 -39 -50 0
-8 -24 -44 -50 0
-8 -25 -32 -39 0
-8 -25 -32 -44 0
-8 -25 -32 -50 0
-8 -25 -39 -44 0
-8 -25 -39 -50 0
-8 -25 -44 -50 0
-8 -32 -39 -44 0
-8 -32 -39 -50 0
-8 -32 -44 -50 0
-8 -39 -44 -50 0
-15 -24 -25 -32 0
-15 -24 -25 -39 0
-15 -24 -25 -44 0
-15 -24 -25 -50 0
-15 -24 -32 -39 0
-15 -24 -32 -44 0
-15 -24 -32 -50 0
-15 -24 -39 -44 0
-15 -24 -39 -50 0
-15 -24 -44 -50 0
-15 -25 -32 -39 0
-15 -25 -32 -44 0
-15 -25 -32 -50 0
-15 -25 -39 -44 0
-15 -25 -39 -50 0
-15 -25 -44 -50 0
-15 -32 -39 -44 0
-15 -32 -39 -50 0
-15 -32 -44 -50 0
-15 -39 -44 -50 0
-24 -25 -32 -39 0
-24 -25 -32 -44 0
-24 -25 -32 -50 0
-24 -25 -39 -44 0
-24 -25 -39 -50 0
-24 -25 -44 -50 0
-24 -32 -39 -44 0
-24 -32 -39 -50 0
-24 -32 -44 -50 0
-24 -39 -44 -50 0
-25 -32 -39 -44 0
-25 -32 -39 -50 0
-25 -32 -44 -50 0
-25 -39 -44 -50 0
-32 -39 -44 -50 0
-3 -9 -16 -21 0
-3 -9 -16 -26 0
-3 -9 -16 -33 0
-3 -9 -16 -40 0
-3 -9 -16 -45 0
-3 -9 -16 -51 0
-3 -9 -21 -26 0
-3 -9 -21 -33 0
-3 -9 -21 -40 0
-3 -9 -21 -45 0
-3 -9 -21 -51 0
-3 -9 -26 -33 0
-3 -9 -26 -40 0
-3 -9 -26 -45 0
-3 -9 -26 -51 0
-3 -9 -33 -40 0
-3 -9 -33 -45 0
-3 -9 -33 -51 0
-3 -9 -40 -45 0
-3 -9 -40 -51 0
-3 -9 -45 -51 0
-3 -16 -21 -26 0
-3 -16 -21 -33 0
-3 -16 -21 -40 0
-3 -16 -21 -45 0
-3 -16 -21 -51 0
-3 -16 -26 -33 0
-3 -16 -26 -40 0
-3 -16 -26 -45 0
-3 -16 -26 -51 0
-3 -16 -33 -40 0
-3 -16 -33 -45 0
-3 -16 -33 -51 0
-3 -16 -40 -45 0
-3 -16 -40 -51 0
-3 -16 -45 -51 0
-3 -21 -26 -33 0
-3 -21 -26 -40 0
-3 -21 -26 -45 0
-3 -21 -26 -51 0
-3 -21 -33 -40 0
-3 -21 -33 -45 0
-3 -21 -33 -51 0
-3 -21 -40 -45 0
-3 -21 -40 -51 0
-3 -21 -45 -51 0
-3 -26 -33 -40 0
-3 -26 -33 -45 0
-3 -26 -33 -51 0
-3 -26 -40 -45 0
-3 -26 -40 -51 0
-3 -26 -45 -51 0
-3 -33 -40 -45 0
-3 -33 -40 -51 0
-3 -33 -45 -51 0
-3 -40 -45 -51 0
-9 -16 -21 -26 0
-9 -16 -21 -33 0
-9 -16 -21 -40 0
-9 -16 -21 -45 0
-9 -16 -21 -51 0
-9 -16 -26 -33 0
-9 -16 -26 -40 0
-9 -16 -26 -45 0
-9 -16 -26 -51 0
-9 -16 -33 -40 0
-9 -16 -33 -45 0
-9 -16 -33 -51 0
-9 -16 -40 -45 0
-9 -16 -40 -51 0
-9 -16 -45 -51 0
-9 -21 -26 -33 0
-9 -21 -26 -40 0
-9 -21 -26 -45 0
-9 -21 -26 -51 0
-9 -21 -33 -40 0
-9 -21 -33 -45 0
-9 -21 -33 -51 0
-9 -21 -40 -45 0
-9 -21 -40 -51 0
-9 -21 -45 -51 0
-9 -26 -33 -40 0
-9 -26 -33 -45 0
-9 -26 -33 -51 0
-9 -26 -40 -45 0
-9 -26 -40 -51 0
-9 -26 -45 -51 0
-9 -33 -40 -45 0
-9 -33 -40 -51 0
-9 -33 -45 -51 0
-9 -40 -45 -51 0
-16 -21 -26 -33 0
-16 -21 -26 -40 0
-16 -21 -26 -45 0
-16 -21 -26 -51 0
-16 -21 -33 -40 0
-16 -21 -33 -45 0
-16 -21 -33 -51 0
-16 -21 -40 -45 0
-16 -21 -40 -51 0
-16 -21 -45 -51 0
-16 -26 -33 -40 0
-16 -26 -33 -45 0
-16 -26 -33 -51 0
-16 -26 -40 -45 0
-16 -26 -40 -51 0
-16 -26 -45 -51 0
-16 -33 -40 -45 0
-16 -33 -40 -51 0
-16 -33 -45 -51 0
-16 -40 -45 -51 0
-21 -26 -33 -40 0
-21 -26 -33 -45 0
-21 -26 -33 -51 0
-21 -26 -40 -45 0
-21 -26 -40 -51 0
-21 -26 -45 -51 0
-21 -33 -40 -45 0
-21 -33 -40 -51 0
-21 -33 -45 -51 0
-21 -40 -45 -51 0
-26 -33 -40 -45 0
-26 -33 -40 -51 0
-26 -33 -45 -51 0
-26 -40 -45 -51 0
-33 -40 -45 -51 0
-4 -10 -17 -20 0
-4 -10 -17 -27 0
-4 -10 -17 -34 0
-4 -10 -17 -41 0
-4 -10 -17 -46 0
-4 -10 -17 -52 0
-4 -10 -20 -27 0
-4 -10 -20 -34 0
-4 -10 -20 -41 0
-4 -10 -20 -46 0
-4 -10 -20 -52 0
-4 -10 -27 -34 0
-4 -10 -27 -41 0
-4 -10 -27 -46 0
-4 -10 -27 -52 0
-4 -10 -34 -41 0
-4 -10 -34 -46 0
-4 -10 -34 -52 0
-4 -10 -41 -46 0
-4 -10 -41 -52 0
-4 -10 -46 -52 0
-4 -17 -20 -27 0
-4 -17 -20 -34 0
-4 -17 -20 -41 0
-4 -17 -20 -46 0
-4 -17 -20 -52 0
-4 -17 -27 -34 0
-4 -17 -27 -41 0
-4 -17 -27 -46 0
-4 -17 -27 -52 0
-4 -17 -34 -41 0
-4 -17 -34 -46 0
-4 -17 -34 -52 0
-4 -17 -41 -46 0
-4 -17 -41 -52 0
-4 -17 -46 -52 0
-4 -20 -27 -34 0
-4 -20 -27 -41 0
-4 -20 -27 -46 0
-4 -20 -27 -52 0
-4 -20 -34 -41 0
-4 -20 -34 -46 0
-4 -20 -34 -52 0
-4 -20 -41 -46 0
-4 -20 -41 -52 0
-4 -20 -46 -52 0
-4 -27 -34 -41 0
-4 -27 -34 -46 0
-4 -27 -34 -52 0
-4 -27 -41 -46 0
-4 -27 -41 -52 0
-4 -27 -46 -52 0
-4 -34 -41 -46 0
-4 -34 -41 -52 0
-4 -34 -46 -52 0
-4 -41 -46 -52 0
-10 -17 -20 -27 0
-10 -17 -20 -34 0
-10 -17 -20 -41 0
-10 -17 -20 -46 0
-10 -17 -20 -52 0
-10 -17 -27 -34 0
-10 -17 -27 -41 0
-10 -17 -27 -46 0
-10 -17 -27 -52 0
-10 -17 -34 -41 0
-10 -17 -34 -46 0
-10 -17 -34 -52 0
-10 -17 -41 -46 0
-10 -17 -41 -52 0
-10 -17 -46 -52 0
-10 -20 -27 -34 0
-10 -20 -27 -41 0
-10 -20 -27 -46 0
-10 -20 -27 -52 0
-10 -20 -34 -41 0
-10 -20 -34 -46 0
-10 -20 -34 -52 0
-10 -20 -41 -46 0
-10 -20 -41 -52 0
-10 -20 -46 -52 0
-10 -27 -34 -41 0
-10 -27 -34 -46 0
-10 -27 -34 -52 0
-10 -27 -41 -46 0
-10 -27 -41 -52 0
-10 -27 -46 -52 0
-10 -34 -41 -46 0
-10 -34 -41 -52 0
-10 -34 -46 -52 0
-10 -41 -46 -52 0
-17 -20 -27 -34 0
-17 -20 -27 -41 0
-17 -20 -27 -46 0
-17 -20 -27 -52 0
-17 -20 -34 -41 0
-17 -20 -34 -46 0
-17 -20 -34 -52 0
-17 -20 -41 -46 0
-17 -20 -41 -52 0
-17 -20 -46 -52 0
-17 -27 -34 -41 0
-17 -27 -34 -46 0
-17 -27 -34 -52 0
-17 -27 -41 -46 0
-17 -27 -41 -52 0
-17 -27 -46 -52 0
-17 -34 -41 -46 0
-17 -34 -41 -52 0
-17 -34 -46 -52 0
-17 -41 -46 -52 0
-20 -27 -34 -41 0
-20 -27 -34 -46 0
-20 -27 -34 -52 0
-20 -27 -41 -46 0
-20 -27 -41 -52 0
-20 -27 -46 -52 0
-20 -34 -41 -46 0
-20 -34 -41 -52 0
-20 -34 -46 -52 0
-20 -41 -46 -52 0
-27 -34 -41 -46 0
-27 -34 -41 -52 0
-27 -34 -46 -52 0
-27 -41 -46 -52 0
-34 -41 -46 -52 0
-5 -11 -18 -21 0
-5 -11 -18 -28 0
-5 -11 -18 -35 0
-5 -11 -18 -42 0
-5 -11 -18 -47 0
-5 -11 -18 -53 0
-5 -11 -21 -28 0
-5 -11 -21 -35 0
-5 -11 -21 -42 0
-5 -11 -21 -47 0
-5 -11 -21 -53 0
-5 -11 -28 -35 0
-5 -11 -28 -42 0
-5 -11 -28 -47 0
-5 -11 -28 -53 0
-5 -11 -35 -42 0
-5 -11 -35 -47 0
-5 -11 -35 -53 0
-5 -11 -42 -47 0
-5 -11 -42 -53 0
-5 -11 -47 -53 0
-5 -18 -21 -28 0
-5 -18 -21 -35 0
-5 -18 -21 -42 0
-5 -18 -21 -47 0
-5 -18 -21 -53 0
-5 -18 -28 -35 0
-5 -18 -28 -42 0
-5 -18 -28 -47 0
-5 -18 -28 -53 0
-5 -18 -35 -42 0
-5 -18 -35 -47 0
-5 -18 -35 -53 0
-5 -18 -42 -47 0
-5 -18 -42 -53 0
-5 -18 -47 -53 0
-5 -21 -28 -35 0
-5 -21 -28 -42 0
-5 -21 -28 -47 0
-5 -21 -28 -53 0
-5 -21 -35 -42 0
-5 -21 -35 -47 0
-5 -21 -35 -53 0
-5 -21 -42 -47 0
-5 -21 -42 -53 0
-5 -21 -47 -53 0
-5 -28 -35 -42 0
-5 -28 -35 -47 0
-5 -28 -35 -53 0
-5 -28 -42 -47 0
-5 -28 -42 -53 0
-5 -28 -47 -53 0
-5 -35 -42 -47 0
-5 -35 -42 -53 0
-5 -35 -47 -53 0
-5 -42 -47 -53 0
-11 -18 -21 -28 0
-11 -18 -21 -35 0
-11 -18 -21 -42 0
-11 -18 -21 -47 0
-11 -18 -21 -53 0
-11 -18 -28 -35 0
-11 -18 -28 -42 0
-11 -18 -28 -47 0
-11 -18 -28 -53 0
-11 -18 -35 -42 0
-11 -18 -35 -47 0
-11 -18 -35 -53 0
-11 -18 -42 -47 0
-11 -18 -42 -53 0
-11 -18 -47 -53 0
-11 -21 -28 -35 0
-11 -21 -28 -42 0
-11 -21 -28 -47 0
-11 -21 -28 -53 0
-11 -21 -35 -42 0
-11 -21 -35 -47 0
-11 -21 -35 -53 0
-11 -21 -42 -47 0
-11 -21 -42 -53 0
-11 -21 -47 -53 0
-11 -28 -35 -42 0
-11 -28 -35 -47 0
-11 -28 -35 -53 0
-11 -28 -42 -47 0
-11 -28 -42 -53 0
-11 -28 -47 -53 0
-11 -35 -42 -47 0
-11 -35 -42 -53 0
-11 -35 -47 -53 0
-11 -42 -47 -53 0
-18 -21 -28 -35 0
-18 -21 -28 -42 0
-18 -21 -28 -47 0
-18 -21 -28 -53 0
-18 -21 -35 -42 0
-18 -21 -35 -47 0
-18 -21 -35 -53 0
-18 -21 -42 -47 0
-18 -21 -42 -53 0
-18 -21 -47 -53 0
-18 -28 -35 -42 0
-18 -28 -35 -47 0
-18 -28 -35 -53 0
-18 -28 -42 -47 0
-18 -28 -42 -53 0
-18 -28 -47 -53 0
-18 -35 -42 -47 0
-18 -35 -42 -53 0
-18 -35 -47 -53 0
-18 -42 -47 -53 0
-21 -28 -35 -42 0
-21 -28 -35 -47 0
-21 -28 -35 -53 0
-21 -28 -42 -47 0
-21 -28 -42 -53 0
-21 -28 -47 -53 0
-21 -35 -42 -47 0
-21 -35 -42 -53 0
-21 -35 -47 -53 0
-21 -42 -47 -53 0
-28 -35 -42 -47 0
-28 -35 -42 -53 0
-28 -35 -47 -53 0
-28 -42 -47 -53 0
-35 -42 -47 -53 0
-6 -12 -13 -22 0
-6 -12 -13 -29 0
-6 -12 -13 -36 0
-6 -12 -13 -37 0
-6 -12 -13 -48 0
-6 -12 -13 -54 0
-6 -12 -22 -29 0
-6 -12 -22 -36 0
-6 -12 -22 -37 0
-6 -12 -22 -48 0
-6 -12 -22 -54 0
-6 -12 -29 -36 0
-6 -12 -29 -37 0
-6 -12 -29 -48 0
-6 -12 -29 -54 0
-6 -12 -36 -37 0
-6 -12 -36 -48 0
-6 -12 -36 -54 0
-6 -12 -37 -48 0
-6 -12 -37 -54 0
-6 -12 -48 -54 0
-6 -13 -22 -29 0
-6 -13 -22 -36 0
-6 -13 -22 -37 0
-6 -13 -22 -48 0
-6 -13 -22 -54 0
-6 -13 -29 -36 0
-6 -13 -29 -37 0
-6 -13 -29 -48 0
-6 -13 -29 -54 0
-6 -13 -36 -37 0
-6 -13 -36 -48 0
-6 -13 -36 -54 0
-6 -13 -37 -48 0
-6 -13 -37 -54 0
-6 -13 -48 -54 0
-6 -22 -29 -36 0
-6 -22 -29 -37 0
-6 -22 -29 -48 0
-6 -22 -29 -54 0
-6 -22 -36 -37 0
-6 -22 -36 -48 0
-6 -22 -36 -54 0
-6 -22 -37 -48 0
-6 -22 -37 -54 0
-6 -22 -48 -54 0
-6 -29 -36 -37 0
-6 -29 -36 -48 0
-6 -29 -36 -54 0
-6 -29 -37 -48 0
-6 -29 -37 -54 0
-6 -29 -48 -54 0
-6 -36 -37 -48 0
-6 -36 -37 -54 0
-6 -36 -48 -54 0
-6 -37 -48 -54 0
-12 -13 -22 -29 0
-12 -13 -22 -36 0
-12 -13 -22 -37 0
-12 -13 -22 -48 0
-12 -13 -22 -54 0
-12 -13 -29 -36 0
-12 -13 -29 -37 0
-12 -13 -29 -48 0
-12 -13 -29 -54 0
-12 -13 -36 -37 0
-12 -13 -36 -48 0
-12 -13 -36 -54 0
-12 -13 -37 -48 0
-12 -13 -37 -54 0
-12 -13 -48 -54 0
-12 -22 -29 -36 0
-12 -22 -29 -37 0
-12 -22 -29 -48 0
-12 -22 -29 -54 0
-12 -22 -36 -37 0
-12 -22 -36 -48 0
-12 -22 -36 -54 0
-12 -22 -37 -48 0
-12 -22 -37 -54 0
-12 -22 -48 -54 0
-12 -29 -36 -37 0
-12 -29 -36 -48 0
-12 -29 -36 -54 0
-12 -29 -37 -48 0
-12 -29 -37 -54 0
-12 -29 -48 -54 0
-12 -36 -37 -48 0
-12 -36 -37 -54 0
-12 -36 -48 -54 0
-12 -37 -48 -54 0
-13 -22 -29 -36 0
-13 -22 -29 -37 0
-13 -22 -29 -48 0
-13 -22 -29 -54 0
-13 -22 -36 -37 0
-13 -22 -36 -48 0
-13 -22 -36 -54 0
-13 -22 -37 -48 0
-13 -22 -37 -54 0
-13 -22 -48 -54 0
-13 -29 -36 -37 0
-13 -29 -36 -48 0
-13 -29 -36 -54 0
-13 -29 -37 -48 0
-13 -29 -37 -54 0
-13 -29 -48 -54 0
-13 -36 -37 -48 0
-13 -36 -37 -54 0
-13 -36 -48 -54 0
-13 -37 -48 -54 0
-22 -29 -36 -37 0
-22 -29 -36 -48 0
-22 -29 -36 -54 0
-22 -29 -37 -48 0
-22 -29 -37 -54 0
-22 -29 -48 -54 0
-22 -36 -37 -48 0
-22 -36 -37 -54 0
-22 -36 -48 -54 0
-22 -37 -48 -54 0
-29 -36 -37 -48 0
-29 -36 -37 -54 0
-29 -36 -48 -54 0
-29 -37 -48 -54 0
-36 -37 -48 -54 0
-1 -9 -15 -20 0
-1 -9 -15 -29 0
-1 -9 -15 -33 0
-1 -9 -15 -39 0
-1 -9 -15 -43 0
-1 -9 -15 -53 0
-1 -9 -20 -29 0
-1 -9 -20 -33 0
-1 -9 -20 -39 0
-1 -9 -20 -43 0
-1 -9 -20 -53 0
-1 -9 -29 -33 0
-1 -9 -29 -39 0
-1 -9 -29 -43 0
-1 -9 -29 -53 0
-1 -9 -33 -39 0
-1 -9 -33 -43 0
-1 -9 -33 -53 0
-1 -9 -39 -43 0
-1 -9 -39 -53 0
-1 -9 -43 -53 0
-1 -15 -20 -29 0
-1 -15 -20 -33 0
-1 -15 -20 -39 0
-1 -15 -20 -43 0
-1 -15 -20 -53 0
-1 -15 -29 -33 0
-1 -15 -29 -39 0
-1 -15 -29 -43 0
-1 -15 -29 -53 0
-1 -15 -33 -39 0
-1 -15 -33 -43 0
-1 -15 -33 -53 0
-1 -15 -39 -43 0
-1 -15 -39 -53 0
-1 -15 -43 -53 0
-1 -20 -29 -33 0
-1 -20 -29 -39 0
-1 -20 -29 -43 0
-1 -20 -29 -53 0
-1 -20 -33 -39 0
-1 -20 -33 -43 0
-1 -20 -33 -53 0
-1 -20 -39 -43 0
-1 -20 -39 -53 0
-1 -20 -43 -53 0
-1 -29 -33 -39 0
-1 -29 -33 -43 0
-1 -29 -33 -53 0
-1 -29 -39 -43 0
-1 -29 -39 -53 0
-1 -29 -43 -53 0
-1 -33 -39 -43 0
-1 -33 -39 -53 0
-1 -33 -43 -53 0
-1 -39 -43 -53 0
-9 -15 -20 -29 0
-9 -15 -20 -33 0
-9 -15 -20 -39 0
-9 -15 -20 -43 0
-9 -15 -20 -53 0
-9 -15 -29 -33 0
-9 -15 -29 -39 0
-9 -15 -29 -43 0
-9 -15 -29 -53 0
-9 -15 -33 -39 0
-9 -15 -33 -43 0
-9 -15 -33 -53 0
-9 -15 -39 -43 0
-9 -15 -39 -53 0
-9 -15 -43 -53 0
-9 -20 -29 -33 0
-9 -20 -29 -39 0
-9 -20 -29 -43 0
-9 -20 -29 -53 0
-9 -20 -33 -39 0
-9 -20 -33 -43 0
-9 -20 -33 -53 0
-9 -20 -39 -43 0
-9 -20 -39 -53 0
-9 -20 -43 -53 0
-9 -29 -33 -39 0
-9 -29 -33 -43 0
-9 -29 -33 -53 0
-9 -29 -39 -43 0
-9 -29 -39 -53 0
-9 -29 -43 -53 0
-9 -33 -39 -43 0
-9 -33 -39 -53 0
-9 -33 -43 -53 0
-9 -39 -43 -53 0
-15 -20 -29 -33 0
-15 -20 -29 -39 0
-15 -20 -29 -43 0
-15 -20 -29 -53 0
-15 -20 -33 -39 0
-15 -20 -33 -43 0
-15 -20 -33 -53 0
-15 -20 -39 -43 0
-15 -20 -39 -53 0
-15 -20 -43 -53 0
-15 -29 -33 -39 0
-15 -29 -33 -43 0
-15 -29 -33 -53 0
-15 -29 -39 -43 0
-15 -29 -39 -53 0
-15 -29 -43 -53 0
-15 -33 -39 -43 0
-15 -33 -39 -53 0
-15 -33 -43 -53 0
-15 -39 -43 -53 0
-20 -29 -33 -39 0
-20 -29 -33 -43 0
-20 -29 -33 -53 0
-20 -29 -39 -43 0
-20 -29 -39 -53 0
-20 -29 -43 -53 0
-20 -33 -39 -43 0
-20 -33 -39 -53 0
-20 -33 -43 -53 0
-20 -39 -43 -53 0
-29 -33 -39 -43 0
-29 -33 -39 -53 0
-29 -33 -43 -53 0
-29 -39 -43 -53 0
-33 -39 -43 -53 0
-2 -10 -16 -21 0
-2 -10 -16 -30 0
-2 -10 -16 -34 0
-2 -10 -16 -40 0
-2 -10 -16 -44 0
-2 -10 -16 -54 0
-2 -10 -21 -30 0
-2 -10 -21 -34 0
-2 -10 -21 -40 0
-2 -10 -21 -44 0
-2 -10 -21 -54 0
-2 -10 -30 -34 0
-2 -10 -30 -40 0
-2 -10 -30 -44 0
-2 -10 -30 -54 0
-2 -10 -34 -40 0
-2 -10 -34 -44 0
-2 -10 -34 -54 0
-2 -10 -40 -44 0
-2 -10 -40 -54 0
-2 -10 -44 -54 0
-2 -16 -21 -30 0
-2 -16 -21 -34 0
-2 -16 -21 -40 0
-2 -16 -21 -44 0
-2 -16 -21 -54 0
-2 -16 -30 -34 0
-2 -16 -30 -40 0
-2 -16 -30 -44 0
-2 -16 -30 -54 0
-2 -16 -34 -40 0
-2 -16 -34 -44 0
-2 -16 -34 -54 0
-2 -16 -40 -44 0
-2 -16 -40 -54 0
-2 -16 -44 -54 0
-2 -21 -30 -34 0
-2 -21 -30 -40 0
-2 -21 -30 -44 0
-2 -21 -30 -54 0
-2 -21 -34 -40 0
-2 -21 -34 -44 0
-2 -21 -34 -54 0
-2 -21 -40 -44 0
-2 -21 -40 -54 0
-2 -21 -44 -54 0
-2 -30 -34 -40 0
-2 -30 -34 -44 0
-2 -30 -34 -54 0
-2 -30 -40 -44 0
-2 -30 -40 -54 0
-2 -30 -44 -54 0
-2 -34 -40 -44 0
-2 -34 -40 -54 0
-2 -34 -44 -54 0
-2 -40 -44 -54 0
-10 -16 -21 -30 0
-10 -16 -21 -34 0
-10 -16 -21 -40 0
-10 -16 -21 -44 0
-10 -16 -21 -54 0
-10 -16 -30 -34 0
-10 -16 -30 -40 0
-10 -16 -30 -44 0
-10 -16 -30 -54 0
-10 -16 -34 -40 0
-10 -16 -34 -44 0
-10 -16 -34 -54 0
-10 -16 -40 -44 0
-10 -16 -40 -54 0
-10 -16 -44 -54 0
-10 -21 -30 -34 0
-10 -21 -30 -40 0
-10 -21 -30 -44 0
-10 -21 -30 -54 0
-10 -21 -34 -40 0
-10 -21 -34 -44 0
-10 -21 -34 -54 0
-10 -21 -40 -44 0
-10 -21 -40 -54 0
-10 -21 -44 -54 0
-10 -30 -34 -40 0
-10 -30 -34 -44 0
-10 -30 -34 -54 0
-10 -30 -40 -44 0
-10 -30 -40 -54 0
-10 -30 -44 -54 0
-10 -34 -40 -44 0
-10 -34 -40 -54 0
-10 -34 -44 -54 0
-10 -40 -44 -54 0
-16 -21 -30 -34 0
-16 -21 -30 -40 0
-16 -21 -30 -44 0
-16 -21 -30 -54 0
-16 -21 -34 -40 0
-16 -21 -34 -44 0
-16 -21 -34 -54 0
-16 -21 -40 -44 0
-16 -21 -40 -54 0
-16 -21 -44 -54 0
-16 -30 -34 -40 0
-16 -30 -34 -44 0
-16 -30 -34 -54 0
-16 -30 -40 -44 0
-16 -30 -40 -54 0
-16 -30 -44 -54 0
-16 -34 -40 -44 0
-16 -34 -40 -54 0
-16 -34 -44 -54 0
-16 -40 -44 -54 0
-21 -30 -34 -40 0
-21 -30 -34 -44 0
-21 -30 -34 -54 0
-21 -30 -40 -44 0
-21 -30 -40 -54 0
-21 -30 -44 -54 0
-21 -34 -40 -44 0
-21 -34 -40 -54 0
-21 -34 -44 -54 0
-21 -40 -44 -54 0
-30 -34 -40 -44 0
-30 -34 -40 -54 0
-30 -34 -44 -54 0
-30 -40 -44 -54 0
-34 -40 -44 -54 0
-3 -11 -17 -22 0
-3 -11 -17 -25 0
-3 -11 -17 -35 0
-3 -11 -17 -41 0
-3 -11 -17 -45 0
-3 -11 -17 -49 0
-3 -11 -22 -25 0
-3 -11 -22 -35 0
-3 -11 -22 -41 0
-3 -11 -22 -45 0
-3 -11 -22 -49 0
-3 -11 -25 -35 0
-3 -11 -25 -41 0
-3 -11 -25 -45 0
-3 -11 -25 -49 0
-3 -11 -35 -41 0
-3 -11 -35 -45 0
-3 -11 -35 -49 0
-3 -11 -41 -45 0
-3 -11 -41 -49 0
-3 -11 -45 -49 0
-3 -17 -22 -25 0
-3 -17 -22 -35 0
-3 -17 -22 -41 0
-3 -17 -22 -45 0
-3 -17 -22 -49 0
-3 -17 -25 -35 0
-3 -17 -25 -41 0
-3 -17 -25 -45 0
-3 -17 -25 -49 0
-3 -17 -35 -41 0
-3 -17 -35 -45 0
-3 -17 -35 -49 0
-3 -17 -41 -45 0
-3 -17 -41 -49 0
-3 -17 -45 -49 0
-3 -22 -25 -35 0
-3 -22 -25 -41 0
-3 -22 -25 -45 0
-3 -22 -25 -49 0
-3 -22 -35 -41 0
-3 -22 -35 -45 0
-3 -22 -35 -49 0
-3 -22 -41 -45 0
-3 -22 -41 -49 0
-3 -22 -45 -49 0
-3 -25 -35 -41 0
-3 -25 -35 -45 0
-3 -25 -35 -49 0
-3 -25 -41 -45 0
-3 -25 -41 -49 0
-3 -25 -45 -49 0
-3 -35 -41 -45 0
-3 -35 -41 -49 0
-3 -35 -45 -49 0
-3 -41 -45 -49 0
-11 -17 -22 -25 0
-11 -17 -22 -35 0
-11 -17 -22 -41 0
-11 -17 -22 -45 0
-11 -17 -22 -49 0
-11 -17 -25 -35 0
-11 -17 -25 -41 0
-11 -17 -25 -45 0
-11 -17 -25 -49 0
-11 -17 -35 -41 0
-11 -17 -35 -45 0
-11 -17 -35 -49 0
-11 -17 -41 -45 0
-11 -17 -41 -49 0
-11 -17 -45 -49 0
-11 -22 -25 -35 0
-11 -22 -25 -41 0
-11 -22 -25 -45 0
-11 -22 -25 -49 0
-11 -22 -35 -41 0
-11 -22 -35 -45 0
-11 -22 -35 -49 0
-11 -22 -41 -45 0
-11 -22 -41 -49 0
-11 -22 -45 -49 0
-11 -25 -35 -41 0
-11 -25 -35 -45 0
-11 -25 -35 -49 0
-11 -25 -41 -45 0
-11 -25 -41 -49 0
-11 -25 -45 -49 0
-11 -35 -41 -45 0
-11 -35 -41 -49 0
-11 -35 -45 -49 0
-11 -41 -45 -49 0
-17 -22 -25 -35 0
-17 -22 -25 -41 0
-17 -22 -25 -45 0
-17 -22 -25 -49 0
-17 -22 -35 -41 0
-17 -22 -35 -45 0
-17 -22 -35 -49 0
-17 -22 -41 -45 0
-17 -22 -41 -49 0
-17 -22 -45 -49 0
-17 -25 -35 -41 0
-17 -25 -35 -45 0
-17 -25 -35 -49 0
-17 -25 -41 -45 0
-17 -25 -41 -49 0
-17 -25 -45 -49 0
-17 -35 -41 -45 0
-17 -35 -41 -49 0
-17 -35 -45 -49 0
-17 -41 -45 -49 0
-22 -25 -35 -41 0
-22 -25 -35 -45 0
-22 -25 -35 -49 0
-22 -25 -41 -45 0
-22 -25 -41 -49 0
-22 -25 -45 -49 0
-22 -35 -41 -45 0
-22 -35 -41 -49 0
-22 -35 -45 -49 0
-22 -41 -45 -49 0
-25 -35 -41 -45 0
-25 -35 -41 -49 0
-25 -35 -45 -49 0
-25 -41 -45 -49 0
-35 -41 -45 -49 0
-4 -12 -18 -23 0
-4 -12 -18 -26 0
-4 -12 -18 -36 0
-4 -12 -18 -42 0
-4 -12 -18 -46 0
-4 -12 -18 -50 0
-4 -12 -23 -26 0
-4 -12 -23 -36 0
-4 -12 -23 -42 0
-4 -12 -23 -46 0
-4 -12 -23 -50 0
-4 -12 -26 -36 0
-4 -12 -26 -42 0
-4 -12 -26 -46 0
-4 -12 -26 -50 0
-4 -12 -36 -42 0
-4 -12 -36 -46 0
-4 -12 -36 -50 0
-4 -12 -42 -46 0
-4 -12 -42 -50 0
-4 -12 -46 -50 0
-4 -18 -23 -26 0
-4 -18 -23 -36 0
-4 -18 -23 -42 0
-4 -18 -23 -46 0
-4 -18 -23 -50 0
-4 -18 -26 -36 0
-4 -18 -26 -42 0
-4 -18 -26 -46 0
-4 -18 -26 -50 0
-4 -18 -36 -42 0
-4 -18 -36 -46 0
-4 -18 -36 -50 0
-4 -18 -42 -46 0
-4 -18 -42 -50 0
-4 -18 -46 -50 0
-4 -23 -26 -36 0
-4 -23 -26 -42 0
-4 -23 -26 -46 0
-4 -23 -26 -50 0
-4 -23 -36 -42 0
-4 -23 -36 -46 0
-4 -23 -36 -50 0
-4 -23 -42 -46 0
-4 -23 -42 -50 0
-4 -23 -46 -50 0
-4 -26 -36 -42 0
-4 -26 -36 -46 0
-4 -26 -36 -50 0
-4 -26 -42 -46 0
-4 -26 -42 -50 0
-4 -26 -46 -50 0
-4 -36 -42 -46 0
-4 -36 -42 -50 0
-4 -36 -46 -50 0
-4 -42 -46 -50 0
-12 -18 -23 -26 0
-12 -18 -23 -36 0
-12 -18 -23 -42 0
-12 -18 -23 -46 0
-12 -18 -23 -50 0
-12 -18 -26 -36 0
-12 -18 -26 -42 0
-12 -18 -26 -46 0
-12 -18 -26 -50 0
-12 -18 -36 -42 0
-12 -18 -36 -46 0
-12 -18 -36 -50 0
-12 -18 -42 -46 0
-12 -18 -42 -50 0
-12 -18 -46 -50 0
-12 -23 -26 -36 0
-12 -23 -26 -42 0
-12 -23 -26 -46 0
-12 -23 -26 -50 0
-12 -23 -36 -42 0
-12 -23 -36 -46 0
-12 -23 -36 -50 0
-12 -23 -42 -46 0
-12 -23 -42 -50 0
-12 -23 -46 -50 0
-12 -26 -36 -42 0
-12 -26 -36 -46 0
-12 -26 -36 -50 0
-12 -26 -42 -46 0
-12 -26 -42 -50 0
-12 -26 -46 -50 0
-12 -36 -42 -46 0
-12 -36 -42 -50 0
-12 -36 -46 -50 0
-12 -42 -46 -50 0
-18 -23 -26 -36 0
-18 -23 -26 -42 0
-18 -23 -26 -46 0
-18 -23 -26 -50 0
-18 -23 -36 -42 0
-18 -23 -36 -46 0
-18 -23 -36 -50 0
-18 -23 -42 -46 0
-18 -23 -42 -50 0
-18 -23 -46 -50 0
-18 -26 -36 -42 0
-18 -26 -36 -46 0
-18 -26 -36 -50 0
-18 -26 -42 -46 0
-18 -26 -42 -50 0
-18 -26 -46 -50 0
-18 -36 -42 -46 0
-18 -36 -42 -50 0
-18 -36 -46 -50 0
-18 -42 -46 -50 0
-23 -26 -36 -42 0
-23 -26 -36 -46 0
-23 -26 -36 -50 0
-23 -26 -42 -46 0
-23 -26 -42 -50 0
-23 -26 -46 -50 0
-23 -36 -42 -46 0
-23 -36 -42 -50 0
-23 -36 -46 -50 0
-23 -42 -46 -50 0
-26 -36 -42 -46 0
-26 -36 -42 -50 0
-26 -36 -46 -50 0
-26 -42 -46 -50 0
-36 -42 -46 -50 0
-5 -7 -13 -24 0
-5 -7 -13 -27 0
-5 -7 -13 -31 0
-5 -7 -13 -37 0
-5 -7 -13 -47 0
-5 -7 -13 -51 0
-5 -7 -24 -27 0
-5 -7 -24 -31 0
-5 -7 -24 -37 0
-5 -7 -24 -47 0
-5 -7 -24 -51 0
-5 -7 -27 -31 0
-5 -7 -27 -37 0
-5 -7 -27 -47 0
-5 -7 -27 -51 0
-5 -7 -31 -37 0
-5 -7 -31 -47 0
-5 -7 -31 -51 0
-5 -7 -37 -47 0
-5 -7 -37 -51 0
-5 -7 -47 -51 0
-5 -13 -24 -27 0
-5 -13 -24 -31 0
-5 -13 -24 -37 0
-5 -13 -24 -47 0
-5 -13 -24 -51 0
-5 -13 -27 -31 0
-5 -13 -27 -37 0
-5 -13 -27 -47 0
-5 -13 -27 -51 0
-5 -13 -31 -37 0
-5 -13 -31 -47 0
-5 -13 -31 -51 0
-5 -13 -37 -47 0
-5 -13 -37 -51 0
-5 -13 -47 -51 0
-5 -24 -27 -31 0
-5 -24 -27 -37 0
-5 -24 -27 -47 0
-5 -24 -27 -51 0
-5 -24 -31 -37 0
-5 -24 -31 -47 0
-5 -24 -31 -51 0
-5 -24 -37 -47 0
-5 -24 -37 -51 0
-5 -24 -47 -51 0
-5 -27 -31 -37 0
-5 -27 -31 -47 0
-5 -27 -31 -51 0
-5 -27 -37 -47 0
-5 -27 -37 -51 0
-5 -27 -47 -51 0
-5 -31 -37 -47 0
-5 -31 -37 -51 0
-5 -31 -47 -51 0
-5 -37 -47 -51 0
-7 -13 -24 -27 0
-7 -13 -24 -31 0
-7 -13 -24 -37 0
-7 -13 -24 -47 0
-7 -13 -24 -51 0
-7 -13 -27 -31 0
-7 -13 -27 -37 0
-7 -13 -27 -47 0
-7 -13 -27 -51 0
-7 -13 -31 -37 0
-7 -13 -31 -47 0
-7 -13 -31 -51 0
-7 -13 -37 -47 0
-7 -13 -37 -51 0
-7 -13 -47 -51 0
-7 -24 -27 -31 0
-7 -24 -27 -37 0
-7 -24 -27 -47 0
-7 -24 -27 -51 0
-7 -24 -31 -37 0
-7 -24 -31 -47 0
-7 -24 -31 -51 0
-7 -24 -37 -47 0
-7 -24 -37 -51 0
-7 -24 -47 -51 0
-7 -27 -31 -37 0
-7 -27 -31 -47 0
-7 -27 -31 -51 0
-7 -27 -37 -47 0
-7 -27 -37 -51 0
-7 -27 -47 -51 0
-7 -31 -37 -47 0
-7 -31 -37 -51 0
-7 -31 -47 -51 0
-7 -37 -47 -51 0
-13 -24 -27 -31 0
-13 -24 -27 -37 0
-13 -24 -27 -47 0
-13 -24 -27 -51 0
-13 -24 -31 -37 0
-13 -24 -31 -47 0
-13 -24 -31 -51 0
-13 -24 -37 -47 0
-13 -24 -37 -51 0
-13 -24 -47 -51 0
-13 -27 -31 -37 0
-13 -27 -31 -47 0
-13 -27 -31 -51 0
-13 -27 -37 -47 0
-13 -27 -37 -51 0
-13 -27 -47 -51 0
-13 -31 -37 -47 0
-13 -31 -37 -51 0
-13 -31 -47 -51 0
-13 -37 -47 -51 0
-24 -27 -31 -37 0
-24 -27 -31 -47 0
-24 -27 -31 -51 0
-24 -27 -37 -47 0
-24 -27 -37 -51 0
-24 -27 -47 -51 0
-24 -31 -37 -47 0
-24 -31 -37 -51 0
-24 -31 -47 -51 0
-24 -37 -47 -51 0
-27 -31 -37 -47 0
-27 -31 -37 -51 0
-27 -31 -47 -51 0
-27 -37 -47 -51 0
-31 -37 -47 -51 0
-6 -8 -14 -19 0
-6 -8 -14 -28 0
-6 -8 -14 -32 0
-6 -8 -14 -38 0
-6 -8 -14 -48 0
-6 -8 -14 -52 0
-6 -8 -19 -28 0
-6 -8 -19 -32 0
-6 -8 -19 -38 0
-6 -8 -19 -48 0
-6 -8 -19 -52 0
-6 -8 -28 -32 0
-6 -8 -28 -38 0
-6 -8 -28 -48 0
-6 -8 -28 -52 0
-6 -8 -32 -38 0
-6 -8 -32 -48 0
-6 -8 -32 -52 0
-6 -8 -38 -48 0
-6 -8 -38 -52 0
-6 -8 -48 -52 0
-6 -14 -19 -28 0
-6 -14 -19 -32 0
-6 -14 -19 -38 0
-6 -14 -19 -48 0
-6 -14 -19 -52 0
-6 -14 -28 -32 0
-6 -14 -28 -38 0
-6 -14 -28 -48 0
-6 -14 -28 -52 0
-6 -14 -32 -38 0
-6 -14 -32 -48 0
-6 -14 -32 -52 0
-6 -14 -38 -48 0
-6 -14 -38 -52 0
-6 -14 -48 -52 0
-6 -19 -28 -32 0
-6 -19 -28 -38 0
-6 -19 -28 -48 0
-6 -19 -28 -52 0
-6 -19 -32 -38 0
-6 -19 -32 -48 0
-6 -19 -32 -52 0
-6 -19 -38 -48 0
-6 -19 -38 -52 0
-6 -19 -48 -52 0
-6 -28 -32 -38 0
-6 -28 -32 -48 0
-6 -28 -32 -52 0
-6 -28 -38 -48 0
-6 -28 -38 -52 0
-6 -28 -48 -52 0
-6 -32 -38 -48 0
-6 -32 -38 -52 0
-6 -32 -48 -52 0
-6 -38 -48 -52 0
-8 -14 -19 -28 0
-8 -14 -19 -32 0
-8 -14 -19 -38 0
-8 -14 -19 -48 0
-8 -14 -19 -52 0
-8 -14 -28 -32 0
-8 -14 -28 -38 0
-8 -14 -28 -48 0
-8 -14 -28 -52 0
-8 -14 -32 -38 0
-8 -14 -32 -48 0
-8 -14 -32 -52 0
-8 -14 -38 -48 0
-8 -14 -38 -52 0
-8 -14 -48 -52 0
-8 -19 -28 -32 0
-8 -19 -28 -38 0
-8 -19 -28 -48 0
-8 -19 -28 -52 0
-8 -19 -32 -38 0
-8 -19 -32 -48 0
-8 -19 -32 -52 0
-8 -19 -38 -48 0
-8 -19 -38 -52 0
-8 -19 -48 -52 0
-8 -28 -32 -38 0
-8 -28 -32 -48 0
-8 -28 -32 -52 0
-8 -28 -38 -48 0
-8 -28 -38 -52 0
-8 -28 -48 -52 0
-8 -32 -38 -48 0
-8 -32 -38 -52 0
-8 -32 -48 -52 0
-8 -38 -48 -52 0
-14 -19 -28 -32 0
-14 -19 -28 -38 0
-14 -19 -28 -48 0
-14 -19 -28 -52 0
-14 -19 -32 -38 0
-14 -19 -32 -48 0
-14 -19 -32 -52 0
-14 -19 -38 -48 0
-14 -19 -38 -52 0
-14 -19 -48 -52 0
-14 -28 -32 -38 0
-14 -28 -32 -48 0
-14 -28 -32 -52 0
-14 -28 -38 -48 0
-14 -28 -38 -52 0
-14 -28 -48 -52 0
-14 -32 -38 -48 0
-14 -32 -38 -52 0
-14 -32 -48 -52 0
-14 -38 -48 -52 0
-19 -28 -32 -38 0
-19 -28 -32 -48 0
-19 -28 -32 -52 0
-19 -28 -38 -48 0
-19 -28 -38 -52 0
-19 -28 -48 -52 0
-19 -32 -38 -48 0
-19 -32 -38 -52 0
-19 -32 -48 -52 0
-19 -38 -48 -52 0
-28 -32 -38 -48 0
-28 -32 -38 -52 0
-28 -32 -48 -52 0
-28 -38 -48 -52 0
-32 -38 -48 -52 0
-1 -10 -18 -19 0
-1 -10 -18 -27 0
-1 -10 -18 -31 0
-1 -10 -18 -39 0
-1 -10 -18 -44 0
-1 -10 -18 -49 0
-1 -10 -19 -27 0
-1 -10 -19 -31 0
-1 -10 -19 -39 0
-1 -10 -19 -44 0
-1 -10 -19 -49 0
-1 -10 -27 -31 0
-1 -10 -27 -39 0
-1 -10 -27 -44 0
-1 -10 -27 -49 0
-1 -10 -31 -39 0
-1 -10 -31 -44 0
-1 -10 -31 -49 0
-1 -10 -39 -44 0
-1 -10 -39 -49 0
-1 -10 -44 -49 0
-1 -18 -19 -27 0
-1 -18 -19 -31 0
-1 -18 -19 -39 0
-1 -18 -19 -44 0
-1 -18 -19 -49 0
-1 -18 -27 -31 0
-1 -18 -27 -39 0
-1 -18 -27 -44 0
-1 -18 -27 -49 0
-1 -18 -31 -39 0
-1 -18 -31 -44 0
-1 -18 -31 -49 0
-1 -18 -39 -44 0
-1 -18 -39 -49 0
-1 -18 -44 -49 0
-1 -19 -27 -31 0
-1 -19 -27 -39 0
-1 -19 -27 -44 0
-1 -19 -27 -49 0
-1 -19 -31 -39 0
-1 -19 -31 -44 0
-1 -19 -31 -49 0
-1 -19 -39 -44 0
-1 -19 -39 -49 0
-1 -19 -44 -49 0
-1 -27 -31 -39 0
-1 -27 -31 -44 0
-1 -27 -31 -49 0
-1 -27 -39 -44 0
-1 -27 -39 -49 0
-1 -27 -44 -49 0
-1 -31 -39 -44 0
-1 -31 -39 -49 0
-1 -31 -44 -49 0
-1 -39 -44 -49 0
-10 -18 -19 -27 0
-10 -18 -19 -31 0
-10 -18 -19 -39 0
-10 -18 -19 -44 0
-10 -18 -19 -49 0
-10 -18 -27 -31 0
-10 -18 -27 -39 0
-10 -18 -27 -44 0
-10 -18 -27 -49 0
-10 -18 -31 -39 0
-10 -18 -31 -44 0
-10 -18 -31 -49 0
-10 -18 -39 -44 0
-10 -18 -39 -49 0
-10 -18 -44 -49 0
-10 -19 -27 -31 0
-10 -19 -27 -39 0
-10 -19 -27 -44 0
-10 -19 -27 -49 0
-10 -19 -31 -39 0
-10 -19 -31 -44 0
-10 -19 -31 -49 0
-10 -19 -39 -44 0
-10 -19 -39 -49 0
-10 -19 -44 -49 0
-10 -27 -31 -39 0
-10 -27 -31 -44 0
-10 -27 -31 -49 0
-10 -27 -39 -44 0
-10 -27 -39 -49 0
-10 -27 -44 -49 0
-10 -31 -39 -44 0
-10 -31 -39 -49 0
-10 -31 -44 -49 0
-10 -39 -44 -49 0
-18 -19 -27 -31 0
-18 -19 -27 -39 0
-18 -19 -27 -44 0
-18 -19 -27 -49 0
-18 -19 -31 -39 0
-18 -19 -31 -44 0
-18 -19 -31 -49 0
-18 -19 -39 -44 0
-18 -19 -39 -49 0
-18 -19 -44 -49 0
-18 -27 -31 -39 0
-18 -27 -31 -44 0
-18 -27 -31 -49 0
-18 -27 -39 -44 0
-18 -27 -39 -49 0
-18 -27 -44 -49 0
-18 -31 -39 -44 0
-18 -31 -39 -49 0
-18 -31 -44 -49 0
-18 -39 -44 -49 0
-19 -27 -31 -39 0
-19 -27 -31 -44 0
-19 -27 -31 -49 0
-19 -27 -39 -44 0
-19 -27 -39 -49 0
-19 -27 -44 -49 0
-19 -31 -39 -44 0
-19 -31 -39 -49 0
-19 -31 -44 -49 0
-19 -39 -44 -49 0
-27 -31 -39 -44 0
-27 -31 -39 -49 0
-27 -31 -44 -49 0
-27 -39 -44 -49 0
-31 -39 -44 -49 0
-2 -11 -13 -20 0
-2 -11 -13 -28 0
-2 -11 -13 -32 0
-2 -11 -13 -40 0
-2 -11 -13 -45 0
-2 -11 -13 -50 0
-2 -11 -20 -28 0
-2 -11 -20 -32 0
-2 -11 -20 -40 0
-2 -11 -20 -45 0
-2 -11 -20 -50 0
-2 -11 -28 -32 0
-2 -11 -28 -40 0
-2 -11 -28 -45 0
-2 -11 -28 -50 0
-2 -11 -32 -40 0
-2 -11 -32 -45 0
-2 -11 -32 -50 0
-2 -11 -40 -45 0
-2 -11 -40 -50 0
-2 -11 -45 -50 0
-2 -13 -20 -28 0
-2 -13 -20 -32 0
-2 -13 -20 -40 0
-2 -13 -20 -45 0
-2 -13 -20 -50 0
-2 -13 -28 -32 0
-2 -13 -28 -40 0
-2 -13 -28 -45 0
-2 -13 -28 -50 0
-2 -13 -32 -40 0
-2 -13 -32 -45 0
-2 -13 -32 -50 0
-2 -13 -40 -45 0
-2 -13 -40 -50 0
-2 -13 -45 -50 0
-2 -20 -28 -32 0
-2 -20 -28 -40 0
-2 -20 -28 -45 0
-2 -20 -28 -50 0
-2 -20 -32 -40 0
-2 -20 -32 -45 0
-2 -20 -32 -50 0
-2 -20 -40 -45 0
-2 -20 -40 -50 0
-2 -20 -45 -50 0
-2 -28 -32 -40 0
-2 -28 -32 -45 0
-2 -28 -32 -50 0
-2 -28 -40 -45 0
-2 -28 -40 -50 0
-2 -28 -45 -50 0
-2 -32 -40 -45 0
-2 -32 -40 -50 0
-2 -32 -45 -50 0
-2 -40 -45 -50 0
-11 -13 -20 -28 0
-11 -13 -20 -32 0
-11 -13 -20 -40 0
-11 -13 -20 -45 0
-11 -13 -20 -50 0
-11 -13 -28 -32 0
-11 -13 -28 -40 0
-11 -13 -28 -45 0
-11 -13 -28 -50 0
-11 -13 -32 -40 0
-11 -13 -32 -45 0
-11 -13 -32 -50 0
-11 -13 -40 -45 0
-11 -13 -40 -50 0
-11 -13 -45 -50 0
-11 -20 -28 -32 0
-11 -20 -28 -40 0
-11 -20 -28 -45 0
-11 -20 -28 -50 0
-11 -20 -32 -40 0
-11 -20 -32 -45 0
-11 -20 -32 -50 0
-11 -20 -40 -45 0
-11 -20 -40 -50 0
-11 -20 -45 -50 0
-11 -28 -32 -40 0
-11 -28 -32 -45 0
-11 -28 -32 -50 0
-11 -28 -40 -45 0
-11 -28 -40 -50 0
-11 -28 -45 -50 0
-11 -32 -40 -45 0
-11 -32 -40 -50 0
-11 -32 -45 -50 0
-11 -40 -45 -50 0
-13 -20 -28 -32 0
-13 -20 -28 -40 0
-13 -20 -28 -45 0
-13 -20 -28 -50 0
-13 -20 -32 -40 0
-13 -20 -32 -45 0
-13 -20 -32 -50 0
-13 -20 -40 -45 0
-13 -20 -40 -50 0
-13 -20 -45 -50 0
-13 -28 -32 -40 0
-13 -28 -32 -45 0
-13 -28 -32 -50 0
-13 -28 -40 -45 0
-13 -28 -40 -50 0
-13 -28 -45 -50 0
-13 -32 -40 -45 0
-13 -32 -40 -50 0
-13 -32 -45 -50 0
-13 -40 -45 -50 0
-20 -28 -32 -40 0
-20 -28 -32 -45 0
-20 -28 -32 -50 0
-20 -28 -40 -45 0
-20 -28 -40 -50 0
-20 -28 -45 -50 0
-20 -32 -40 -45 0
-20 -32 -40 -50 0
-20 -32 -45 -50 0
-20 -40 -45 -50 0
-28 -32 -40 -45 0
-28 -32 -40 -50 0
-28 -32 -45 -50 0
-28 -40 -45 -50 0
-32 -40 -45 -50 0
-3 -12 -14 -21 0
-3 -12 -14 -29 0
-3 -12 -14 -33 0
-3 -12 -14 -41 0
-3 -12 -14 -44 0
-3 -12 -14 -51 0
-3 -12 -21 -29 0
-3 -12 -21 -33 0
-3 -12 -21 -41 0
-3 -12 -21 -44 0
-3 -12 -21 -51 0
-3 -12 -29 -33 0
-3 -12 -29 -41 0
-3 -12 -29 -44 0
-3 -12 -29 -51 0
-3 -12 -33 -41 0
-3 -12 -33 -44 0
-3 -12 -33 -51 0
-3 -12 -41 -44 0
-3 -12 -41 -51 0
-3 -12 -44 -51 0
-3 -14 -21 -29 0
-3 -14 -21 -33 0
-3 -14 -21 -41 0
-3 -14 -21 -44 0
-3 -14 -21 -51 0
-3 -14 -29 -33 0
-3 -14 -29 -41 0
-3 -14 -29 -44 0
-3 -14 -29 -51 0
-3 -14 -33 -41 0
-3 -14 -33 -44 0
-3 -14 -33 -51 0
-3 -14 -41 -44 0
-3 -14 -41 -51 0
-3 -14 -44 -51 0
-3 -21 -29 -33 0
-3 -21 -29 -41 0
-3 -21 -29 -44 0
-3 -21 -29 -51 0
-3 -21 -33 -41 0
-3 -21 -33 -44 0
-3 -21 -33 -51 0
-3 -21 -41 -44 0
-3 -21 -41 -51 0
-3 -21 -44 -51 0
-3 -29 -33 -41 0
-3 -29 -33 -44 0
-3 -29 -33 -51 0
-3 -29 -41 -44 0
-3 -29 -41 -51 0
-3 -29 -44 -51 0
-3 -33 -41 -44 0
-3 -33 -41 -51 0
-3 -33 -44 -51 0
-3 -41 -44 -51 0
-12 -14 -21 -29 0
-12 -14 -21 -33 0
-12 -14 -21 -41 0
-12 -14 -21 -44 0
-12 -14 -21 -51 0
-12 -14 -29 -33 0
-12 -14 -29 -41 0
-12 -14 -29 -44 0
-12 -14 -29 -51 0
-12 -14 -33 -41 0
-12 -14 -33 -44 0
-12 -14 -33 -51 0
-12 -14 -41 -44 0
-12 -14 -41 -51 0
-12 -14 -44 -51 0
-12 -21 -29 -33 0
-12 -21 -29 -41 0
-12 -21 -29 -44 0
-12 -21 -29 -51 0
-12 -21 -33 -41 0
-12 -21 -33 -44 0
-12 -21 -33 -51 0
-12 -21 -41 -44 0
-12 -21 -41 -51 0
-12 -21 -44 -51 0
-12 -29 -33 -41 0
-12 -29 -33 -44 0
-12 -29 -33 -51 0
-12 -29 -41 -44 0
-12 -29 -41 -51 0
-12 -29 -44 -51 0
-12 -33 -41 -44 0
-12 -33 -41 -51 0
-12 -33 -44 -51 0
-12 -41 -44 -51 0
-14 -21 -29 -33 0
-14 -21 -29 -41 0
-14 -21 -29 -44 0
-14 -21 -29 -51 0
-14 -21 -33 -41 0
-14 -21 -33 -44 0
-14 -21 -33 -51 0
-14 -21 -41 -44 0
-14 -21 -41 -51 0
-14 -21 -44 -51 0
-14 -29 -33 -41 0
-14 -29 -33 -44 0
-14 -29 -33 -51 0
-14 -29 -41 -44 0
-14 -29 -41 -51 0
-14 -29 -44 -51 0
-14 -33 -41 -44 0
-14 -33 -41 -51 0
-14 -33 -44 -51 0
-14 -41 -44 -51 0
-21 -29 -33 -41 0
-21 -29 -33 -44 0
-21 -29 -33 -51 0
-21 -29 -41 -44 0
-21 -29 -41 -51 0
-21 -29 -44 -51 0
-21 -33 -41 -44 0
-21 -33 -41 -51 0
-21 -33 -44 -51 0
-21 -41 -44 -51 0
-29 -33 -41 -44 0
-29 -33 -41 -51 0
-29 -33 -44 -51 0
-29 -41 -44 -51 0
-33 -41 -44 -51 0
-4 -7 -15 -22 0
-4 -7 -15 -30 0
-4 -7 -15 -34 0
-4 -7 -15 -42 0
-4 -7 -15 -47 0
-4 -7 -15 -52 0
-4 -7 -22 -30 0
-4 -7 -22 -34 0
-4 -7 -22 -42 0
-4 -7 -22 -47 0
-4 -7 -22 -52 0
-4 -7 -30 -34 0
-4 -7 -30 -42 0
-4 -7 -30 -47 0
-4 -7 -30 -52 0
-4 -7 -34 -42 0
-4 -7 -34 -47 0
-4 -7 -34 -52 0
-4 -7 -42 -47 0
-4 -7 -42 -52 0
-4 -7 -47 -52 0
-4 -15 -22 -30 0
-4 -15 -22 -34 0
-4 -15 -22 -42 0
-4 -15 -22 -47 0
-4 -15 -22 -52 0
-4 -15 -30 -34 0
-4 -15 -30 -42 0
-4 -15 -30 -47 0
-4 -15 -30 -52 0
-4 -15 -34 -42 0
-4 -15 -34 -47 0
-4 -15 -34 -52 0
-4 -15 -42 -47 0
-4 -15 -42 -52 0
-4 -15 -47 -52 0
-4 -22 -30 -34 0
-4 -22 -30 -42 0
-4 -22 -30 -47 0
-4 -22 -30 -52 0
-4 -22 -34 -42 0
-4 -22 -34 -47 0
-4 -22 -34 -52 0
-4 -22 -42 -47 0
-4 -22 -42 -52 0
-4 -22 -47 -52 0
-4 -30 -34 -42 0
-4 -30 -34 -47 0
-4 -30 -34 -52 0
-4 -30 -42 -47 0
-4 -30 -42 -52 0
-4 -30 -47 -52 0
-4 -34 -42 -47 0
-4 -34 -42 -52 0
-4 -34 -47 -52 0
-4 -42 -47 -52 0
-7 -15 -22 -30 0
-7 -15 -22 -34 0
-7 -15 -22 -42 0
-7 -15 -22 -47 0
-7 -15 -22 -52 0
-7 -15 -30 -34 0
-7 -15 -30 -42 0
-7 -15 -30 -47 0
-7 -15 -30 -52 0
-7 -15 -34 -42 0
-7 -15 -34 -47 0
-7 -15 -34 -52 0
-7 -15 -42 -47 0
-7 -15 -42 -52 0
-7 -15 -47 -52 0
-7 -22 -30 -34 0
-7 -22 -30 -42 0
-7 -22 -30 -47 0
-7 -22 -30 -52 0
-7 -22 -34 -42 0
-7 -22 -34 -47 0
-7 -22 -34 -52 0
-7 -22 -42 -47 0
-7 -22 -42 -52 0
-7 -22 -47 -52 0
-7 -30 -34 -42 0
-7 -30 -34 -47 0
-7 -30 -34 -52 0
-7 -30 -42 -47 0
-7 -30 -42 -52 0
-7 -30 -47 -52 0
-7 -34 -42 -47 0
-7 -34 -42 -52 0
-7 -34 -47 -52 0
-7 -42 -47 -52 0
-15 -22 -30 -34 0
-15 -22 -30 -42 0
-15 -22 -30 -47 0
-15 -22 -30 -52 0
-15 -22 -34 -42 0
-15 -22 -34 -47 0
-15 -22 -34 -52 0
-15 -22 -42 -47 0
-15 -22 -42 -52 0
-15 -22 -47 -52 0
-15 -30 -34 -42 0
-15 -30 -34 -47 0
-15 -30 -34 -52 0
-15 -30 -42 -47 0
-15 -30 -42 -52 0
-15 -30 -47 -52 0
-15 -34 -42 -47 0
-15 -34 -42 -52 0
-15 -34 -47 -52 0
-15 -42 -47 -52 0
-22 -30 -34 -42 0
-22 -30 -34 -47 0
-22 -30 -34 -52 0
-22 -30 -42 -47 0
-22 -30 -42 -52 0
-22 -30 -47 -52 0
-22 -34 -42 -47 0
-22 -34 -42 -52 0
-22 -34 -47 -52 0
-22 -42 -47 -52 0
-30 -34 -42 -47 0
-30 -34 -42 -52 0
-30 -34 -47 -52 0
-30 -42 -47 -52 0
-34 -42 -47 -52 0
-1 -8 -16 -23 0
-1 -8 -16 -25 0
-1 -8 -16 -35 0
-1 -8 -16 -37 0
-1 -8 -16 -48 0
-1 -8 -16 -53 0
-1 -8 -23 -25 0
-1 -8 -23 -35 0
-1 -8 -23 -37 0
-1 -8 -23 -48 0
-1 -8 -23 -53 0
-1 -8 -25 -35 0
-1 -8 -25 -37 0
-1 -8 -25 -48 0
-1 -8 -25 -53 0
-1 -8 -35 -37 0
-1 -8 -35 -48 0
-1 -8 -35 -53 0
-1 -8 -37 -48 0
-1 -8 -37 -53 0
-1 -8 -48 -53 0
-1 -16 -23 -25 0
-1 -16 -23 -35 0
-1 -16 -23 -37 0
-1 -16 -23 -48 0
-1 -16 -23 -53 0
-1 -16 -25 -35 0
-1 -16 -25 -37 0
-1 -16 -25 -48 0
-1 -16 -25 -53 0
-1 -16 -35 -37 0
-1 -16 -35 -48 0
-1 -16 -35 -53 0
-1 -16 -37 -48 0
-1 -16 -37 -53 0
-1 -16 -48 -53 0
-1 -23 -25 -35 0
-1 -23 -25 -37 0
-1 -23 -25 -48 0
-1 -23 -25 -53 0
-1 -23 -35 -37 0
-1 -23 -35 -48 0
-1 -23 -35 -53 0
-1 -23 -37 -48 0
-1 -23 -37 -53 0
-1 -23 -48 -53 0
-1 -25 -35 -37 0
-1 -25 -35 -48 0
-1 -25 -35 -53 0
-1 -25 -37 -48 0
-1 -25 -37 -53 0
-1 -25 -48 -53 0
-1 -35 -37 -48 0
-1 -35 -37 -53 0
-1 -35 -48 -53 0
-1 -37 -48 -53 0
-8 -16 -23 -25 0
-8 -16 -23 -35 0
-8 -16 -23 -37 0
-8 -16 -23 -48 0
-8 -16 -23 -53 0
-8 -16 -25 -35 0
-8 -16 -25 -37 0
-8 -16 -25 -48 0
-8 -16 -25 -53 0
-8 -16 -35 -37 0
-8 -16 -35 -48 0
-8 -16 -35 -53 0
-8 -16 -37 -48 0
-8 -16 -37 -53 0
-8 -16 -48 -53 0
-8 -23 -25 -35 0
-8 -23 -25 -37 0
-8 -23 -25 -48 0
-8 -23 -25 -53 0
-8 -23 -35 -37 0
-8 -23 -35 -48 0
-8 -23 -35 -53 0
-8 -23 -37 -48 0
-8 -23 -37 -53 0
-8 -23 -48 -53 0
-8 -25 -35 -37 0
-8 -25 -35 -48 0
-8 -25 -35 -53 0
-8 -25 -37 -48 0
-8 -25 -37 -53 0
-8 -25 -48 -53 0
-8 -35 -37 -48 0
-8 -35 -37 -53 0
-8 -35 -48 -53 0
-8 -37 -48 -53 0
-16 -23 -25 -35 0
-16 -23 -25 -37 0
-16 -23 -25 -48 0
-16 -23 -25 -53 0
-16 -23 -35 -37 0
-16 -23 -35 -48 0
-16 -23 -35 -53 0
-16 -23 -37 -48 0
-16 -23 -37 -53 0
-16 -23 -48 -53 0
-16 -25 -35 -37 0
-16 -25 -35 -48 0
-16 -25 -35 -53 0
-16 -25 -37 -48 0
-16 -25 -37 -53 0
-16 -25 -48 -53 0
-16 -35 -37 -48 0
-16 -35 -37 -53 0
-16 -35 -48 -53 0
-16 -37 -48 -53 0
-23 -25 -35 -37 0
-23 -25 -35 -48 0
-23 -25 -35 -53 0
-23 -25 -37 -48 0
-23 -25 -37 -53 0
-23 -25 -48 -53 0
-23 -35 -37 -48 0
-23 -35 -37 -53 0
-23 -35 -48 -53 0
-23 -37 -48 -53 0
-25 -35 -37 -48 0
-25 -35 -37 -53 0
-25 -35 -48 -53 0
-25 -37 -48 -53 0
-35 -37 -48 -53 0
-2 -9 -17 -24 0
-2 -9 -17 -26 0
-2 -9 -17 -36 0
-2 -9 -17 -38 0
-2 -9 -17 -43 0
-2 -9 -17 -54 0
-2 -9 -24 -26 0
-2 -9 -24 -36 0
-2 -9 -24 -38 0
-2 -9 -24 -43 0
-2 -9 -24 -54 0
-2 -9 -26 -36 0
-2 -9 -26 -38 0
-2 -9 -26 -43 0
-2 -9 -26 -54 0
-2 -9 -36 -38 0
-2 -9 -36 -43 0
-2 -9 -36 -54 0
-2 -9 -38 -43 0
-2 -9 -38 -54 0
-2 -9 -43 -54 0
-2 -17 -24 -26 0
-2 -17 -24 -36 0
-2 -17 -24 -38 0
-2 -17 -24 -43 0
-2 -17 -24 -54 0
-2 -17 -26 -36 0
-2 -17 -26 -38 0
-2 -17 -26 -43 0
-2 -17 -26 -54 0
-2 -17 -36 -38 0
-2 -17 -36 -43 0
-2 -17 -36 -54 0
-2 -17 -38 -43 0
-2 -17 -38 -54 0
-2 -17 -43 -54 0
-2 -24 -26 -36 0
-2 -24 -26 -38 0
-2 -24 -26 -43 0
-2 -24 -26 -54 0
-2 -24 -36 -38 0
-2 -24 -36 -43 0
-2 -24 -36 -54 0
-2 -24 -38 -43 0
-2 -24 -38 -54 0
-2 -24 -43 -54 0
-2 -26 -36 -38 0
-2 -26 -36 -43 0
-2 -26 -36 -54 0
-2 -26 -38 -43 0
-2 -26 -38 -54 0
-2 -26 -43 -54 0
-2 -36 -38 -43 0
-2 -36 -38 -54 0
-2 -36 -43 -54 0
-2 -38 -43 -54 0
-9 -17 -24 -26 0
-9 -17 -24 -36 0
-9 -17 -24 -38 0
-9 -17 -24 -43 0
-9 -17 -24 -54 0
-9 -17 -26 -36 0
-9 -17 -26 -38 0
-9 -17 -26 -43 0
-9 -17 -26 -54 0
-9 -17 -36 -38 0
-9 -17 -36 -43 0
-9 -17 -36 -54 0
-9 -17 -38 -43 0
-9 -17 -38 -54 0
-9 -17 -43 -54 0
-9 -24 -26 -36 0
-9 -24 -26 -38 0
-9 -24 -26 -43 0
-9 -24 -26 -54 0
-9 -24 -36 -38 0
-9 -24 -36 -43 0
-9 -24 -36 -54 0
-9 -24 -38 -43 0
-9 -24 -38 -54 0
-9 -24 -43 -54 0
-9 -26 -36 -38 0
-9 -26 -36 -43 0
-9 -26 -36 -54 0
-9 -26 -38 -43 0
-9 -26 -38 -54 0
-9 -26 -43 -54 0
-9 -36 -38 -43 0
-9 -36 -38 -54 0
-9 -36 -43 -54 0
-9 -38 -43 -54 0
-17 -24 -26 -36 0
-17 -24 -26 -38 0
-17 -24 -26 -43 0
-17 -24 -26 -54 0
-17 -24 -36 -38 0
-17 -24 -36 -43 0
-17 -24 -36 -54 0
-17 -24 -38 -43 0
-17 -24 -38 -54 0
-17 -24 -43 -54 0
-17 -26 -36 -38 0
-17 -26 -36 -43 0
-17 -26 -36 -54 0
-17 -26 -38 -43 0
-17 -26 -38 -54 0
-17 -26 -43 -54 0
-17 -36 -38 -43 0
-17 -36 -38 -54 0
-17 -36 -43 -54 0
-17 -38 -43 -54 0
-24 -26 -36 -38 0
-24 -26 -36 -43 0
-24 -26 -36 -54 0
-24 -26 -38 -43 0
-24 -26 -38 -54 0
-24 -26 -43 -54 0
-24 -36 -38 -43 0
-24 -36 -38 -54 0
-24 -36 -43 -54 0
-24 -38 -43 -54 0
-26 -36 -38 -43 0
-26 -36 -38 -54 0
-26 -36 -43 -54 0
-26 -38 -43 -54 0
-36 -38 -43 -54 0
-1 -12 -14 -23 0
-1 -12 -14 -30 0
-1 -12 -14 -32 0
-1 -12 -14 -42 0
-1 -12 -14 -44 0
-1 -12 -14 -54 0
-1 -12 -23 -30 0
-1 -12 -23 -32 0
-1 -12 -23 -42 0
-1 -12 -23 -44 0
-1 -12 -23 -54 0
-1 -12 -30 -32 0
-1 -12 -30 -42 0
-1 -12 -30 -44 0
-1 -12 -30 -54 0
-1 -12 -32 -42 0
-1 -12 -32 -44 0
-1 -12 -32 -54 0
-1 -12 -42 -44 0
-1 -12 -42 -54 0
-1 -12 -44 -54 0
-1 -14 -23 -30 0
-1 -14 -23 -32 0
-1 -14 -23 -42 0
-1 -14 -23 -44 0
-1 -14 -23 -54 0
-1 -14 -30 -32 0
-1 -14 -30 -42 0
-1 -14 -30 -44 0
-1 -14 -30 -54 0
-1 -14 -32 -42 0
-1 -14 -32 -44 0
-1 -14 -32 -54 0
-1 -14 -42 -44 0
-1 -14 -42 -54 0
-1 -14 -44 -54 0
-1 -23 -30 -32 0
-1 -23 -30 -42 0
-1 -23 -30 -44 0
-1 -23 -30 -54 0
-1 -23 -32 -42 0
-1 -23 -32 -44 0
-1 -23 -32 -54 0
-1 -23 -42 -44 0
-1 -23 -42 -54 0
-1 -23 -44 -54 0
-1 -30 -32 -42 0
-1 -30 -32 -44 0
-1 -30 -32 -54 0
-1 -30 -42 -44 0
-1 -30 -42 -54 0
-1 -30 -44 -54 0
-1 -32 -42 -44 0
-1 -32 -42 -54 0
-1 -32 -44 -54 0
-1 -42 -44 -54 0
-12 -14 -23 -30 0
-12 -14 -23 -32 0
-12 -14 -23 -42 0
-12 -14 -23 -44 0
-12 -14 -23 -54 0
-12 -14 -30 -32 0
-12 -14 -30 -42 0
-12 -14 -30 -44 0
-12 -14 -30 -54 0
-12 -14 -32 -42 0
-12 -14 -32 -44 0
-12 -14 -32 -54 0
-12 -14 -42 -44 0
-12 -14 -42 -54 0
-12 -14 -44 -54 0
-12 -23 -30 -32 0
-12 -23 -30 -42 0
-12 -23 -30 -44 0
-12 -23 -30 -54 0
-12 -23 -32 -42 0
-12 -23 -32 -44 0
-12 -23 -32 -54 0
-12 -23 -42 -44 0
-12 -23 -42 -54 0
-12 -23 -44 -54 0
-12 -30 -32 -42 0
-12 -30 -32 -44 0
-12 -30 -32 -54 0
-12 -30 -42 -44 0
-12 -30 -42 -54 0
-12 -30 -44 -54 0
-12 -32 -42 -44 0
-12 -32 -42 -54 0
-12 -32 -44 -54 0
-12 -42 -44 -54 0
-14 -23 -30 -32 0
-14 -23 -30 -42 0
-14 -23 -30 -44 0
-14 -23 -30 -54 0
-14 -23 -32 -42 0
-14 -23 -32 -44 0
-14 -23 -32 -54 0
-14 -23 -42 -44 0
-14 -23 -42 -54 0
-14 -23 -44 -54 0
-14 -30 -32 -42 0
-14 -30 -32 -44 0
-14 -30 -32 -54 0
-14 -30 -42 -44 0
-14 -30 -42 -54 0
-14 -30 -44 -54 0
-14 -32 -42 -44 0
-14 -32 -42 -54 0
-14 -32 -44 -54 0
-14 -42 -44 -54 0
-23 -30 -32 -42 0
-23 -30 -32 -44 0
-23 -30 -32 -54 0
-23 -30 -42 -44 0
-23 -30 -42 -54 0
-23 -30 -44 -54 0
-23 -32 -42 -44 0
-23 -32 -42 -54 0
-23 -32 -44 -54 0
-23 -42 -44 -54 0
-30 -32 -42 -44 0
-30 -32 -42 -54 0
-30 -32 -44 -54 0
-30 -42 -44 -54 0
-32 -42 -44 -54 0
-5 -7 -15 -24 0
-5 -7 -15 -25 0
-5 -7 -15 -33 0
-5 -7 -15 -37 0
-5 -7 -15 -46 0
-5 -7 -15 -49 0
-5 -7 -24 -25 0
-5 -7 -24 -33 0
-5 -7 -24 -37 0
-5 -7 -24 -46 0
-5 -7 -24 -49 0
-5 -7 -25 -33 0
-5 -7 -25 -37 0
-5 -7 -25 -46 0
-5 -7 -25 -49 0
-5 -7 -33 -37 0
-5 -7 -33 -46 0
-5 -7 -33 -49 0
-5 -7 -37 -46 0
-5 -7 -37 -49 0
-5 -7 -46 -49 0
-5 -15 -24 -25 0
-5 -15 -24 -33 0
-5 -15 -24 -37 0
-5 -15 -24 -46 0
-5 -15 -24 -49 0
-5 -15 -25 -33 0
-5 -15 -25 -37 0
-5 -15 -25 -46 0
-5 -15 -25 -49 0
-5 -15 -33 -37 0
-5 -15 -33 -46 0
-5 -15 -33 -49 0
-5 -15 -37 -46 0
-5 -15 -37 -49 0
-5 -15 -46 -49 0
-5 -24 -25 -33 0
-5 -24 -25 -37 0
-5 -24 -25 -46 0
-5 -24 -25 -49 0
-5 -24 -33 -37 0
-5 -24 -33 -46 0
-5 -24 -33 -49 0
-5 -24 -37 -46 0
-5 -24 -37 -49 0
-5 -24 -46 -49 0
-5 -25 -33 -37 0
-5 -25 -33 -46 0
-5 -25 -33 -49 0
-5 -25 -37 -46 0
-5 -25 -37 -49 0
-5 -25 -46 -49 0
-5 -33 -37 -46 0
-5 -33 -37 -49 0
-5 -33 -46 -49 0
-5 -37 -46 -49 0
-7 -15 -24 -25 0
-7 -15 -24 -33 0
-7 -15 -24 -37 0
-7 -15 -24 -46 0
-7 -15 -24 -49 0
-7 -15 -25 -33 0
-7 -15 -25 -37 0
-7 -15 -25 -46 0
-7 -15 -25 -49 0
-7 -15 -33 -37 0
-7 -15 -33 -46 0
-7 -15 -33 -49 0
-7 -15 -37 -46 0
-7 -15 -37 -49 0
-7 -15 -46 -49 0
-7 -24 -25 -33 0
-7 -24 -25 -37 0
-7 -24 -25 -46 0
-7 -24 -25 -49 0
-7 -24 -33 -37 0
-7 -24 -33 -46 0
-7 -24 -33 -49 0
-7 -24 -37 -46 0
-7 -24 -37 -49 0
-7 -24 -46 -49 0
-7 -25 -33 -37 0
-7 -25 -33 -46 0
-7 -25 -33 -49 0
-7 -25 -37 -46 0
-7 -25 -37 -49 0
-7 -25 -46 -49 0
-7 -33 -37 -46 0
-7 -33 -37 -49 0
-7 -33 -46 -49 0
-7 -37 -46 -49 0
-15 -24 -25 -33 0
-15 -24 -25 -37 0
-15 -24 -25 -46 0
-15 -24 -25 -49 0
-15 -24 -33 -37 0
-15 -24 -33 -46 0
-15 -24 -33 -49 0
-15 -24 -37 -46 0
-15 -24 -37 -49 0
-15 -24 -46 -49 0
-15 -25 -33 -37 0
-15 -25 -33 -46 0
-15 -25 -33 -49 0
-15 -25 -37 -46 0
-15 -25 -37 -49 0
-15 -25 -46 -49 0
-15 -33 -37 -46 0
-15 -33 -37 -49 0
-15 -33 -46 -49 0
-15 -37 -46 -49 0
-24 -25 -33 -37 0
-24 -25 -33 -46 0
-24 -25 -33 -49 0
-24 -25 -37 -46 0
-24 -25 -37 -49 0
-24 -25 -46 -49 0
-24 -33 -37 -46 0
-24 -33 -37 -49 0
-24 -33 -46 -49 0
-24 -37 -46 -49 0
-25 -33 -37 -46 0
-25 -33 -37 -49 0
-25 -33 -46 -49 0
-25 -37 -46 -49 0
-33 -37 -46 -49 0
-3 -8 -16 -19 0
-3 -8 -16 -26 0
-3 -8 -16 -34 0
-3 -8 -16 -38 0
-3 -8 -16 -48 0
-3 -8 -16 -49 0
-3 -8 -19 -26 0
-3 -8 -19 -34 0
-3 -8 -19 -38 0
-3 -8 -19 -48 0
-3 -8 -19 -49 0
-3 -8 -26 -34 0
-3 -8 -26 -38 0
-3 -8 -26 -48 0
-3 -8 -26 -49 0
-3 -8 -34 -38 0
-3 -8 -34 -48 0
-3 -8 -34 -49 0
-3 -8 -38 -48 0
-3 -8 -38 -49 0
-3 -8 -48 -49 0
-3 -16 -19 -26 0
-3 -16 -19 -34 0
-3 -16 -19 -38 0
-3 -16 -19 -48 0
-3 -16 -19 -49 0
-3 -16 -26 -34 0
-3 -16 -26 -38 0
-3 -16 -26 -48 0
-3 -16 -26 -49 0
-3 -16 -34 -38 0
-3 -16 -34 -48 0
-3 -16 -34 -49 0
-3 -16 -38 -48 0
-3 -16 -38 -49 0
-3 -16 -48 -49 0
-3 -19 -26 -34 0
-3 -19 -26 -38 0
-3 -19 -26 -48 0
-3 -19 -26 -49 0
-3 -19 -34 -38 0
-3 -19 -34 -48 0
-3 -19 -34 -49 0
-3 -19 -38 -48 0
-3 -19 -38 -49 0
-3 -19 -48 -49 0
-3 -26 -34 -38 0
-3 -26 -34 -48 0
-3 -26 -34 -49 0
-3 -26 -38 -48 0
-3 -26 -38 -49 0
-3 -26 -48 -49 0
-3 -34 -38 -48 0
-3 -34 -38 -49 0
-3 -34 -48 -49 0
-3 -38 -48 -49 0
-8 -16 -19 -26 0
-8 -16 -19 -34 0
-8 -16 -19 -38 0
-8 -16 -19 -48 0
-8 -16 -19 -49 0
-8 -16 -26 -34 0
-8 -16 -26 -38 0
-8 -16 -26 -48 0
-8 -16 -26 -49 0
-8 -16 -34 -38 0
-8 -16 -34 -48 0
-8 -16 -34 -49 0
-8 -16 -38 -48 0
-8 -16 -38 -49 0
-8 -16 -48 -49 0
-8 -19 -26 -34 0
-8 -19 -26 -38 0
-8 -19 -26 -48 0
-8 -19 -26 -49 0
-8 -19 -34 -38 0
-8 -19 -34 -48 0
-8 -19 -34 -49 0
-8 -19 -38 -48 0
-8 -19 -38 -49 0
-8 -19 -48 -49 0
-8 -26 -34 -38 0
-8 -26 -34 -48 0
-8 -26 -34 -49 0
-8 -26 -38 -48 0
-8 -26 -38 -49 0
-8 -26 -48 -49 0
-8 -34 -38 -48 0
-8 -34 -38 -49 0
-8 -34 -48 -49 0
-8 -38 -48 -49 0
-16 -19 -26 -34 0
-16 -19 -26 -38 0
-16 -19 -26 -48 0
-16 -19 -26 -49 0
-16 -19 -34 -38 0
-16 -19 -34 -48 0
-16 -19 -34 -49 0
-16 -19 -38 -48 0
-16 -19 -38 -49 0
-16 -19 -48 -49 0
-16 -26 -34 -38 0
-16 -26 -34 -48 0
-16 -26 -34 -49 0
-16 -26 -38 -48 0
-16 -26 -38 -49 0
-16 -26 -48 -49 0
-16 -34 -38 -48 0
-16 -34 -38 -49 0
-16 -34 -48 -49 0
-16 -38 -48 -49 0
-19 -26 -34 -38 0
-19 -26 -34 -48 0
-19 -26 -34 -49 0
-19 -26 -38 -48 0
-19 -26 -38 -49 0
-19 -26 -48 -49 0
-19 -34 -38 -48 0
-19 -34 -38 -49 0
-19 -34 -48 -49 0
-19 -38 -48 -49 0
-26 -34 -38 -48 0
-26 -34 -38 -49 0
-26 -34 -48 -49 0
-26 -38 -48 -49 0
-34 -38 -48 -49 0
-4 -9 -17 -20 0
-4 -9 -17 -27 0
-4 -9 -17 -35 0
-4 -9 -17 -39 0
-4 -9 -17 -48 0
-4 -9 -17 -51 0
-4 -9 -20 -27 0
-4 -9 -20 -35 0
-4 -9 -20 -39 0
-4 -9 -20 -48 0
-4 -9 -20 -51 0
-4 -9 -27 -35 0
-4 -9 -27 -39 0
-4 -9 -27 -48 0
-4 -9 -27 -51 0
-4 -9 -35 -39 0
-4 -9 -35 -48 0
-4 -9 -35 -51 0
-4 -9 -39 -48 0
-4 -9 -39 -51 0
-4 -9 -48 -51 0
-4 -17 -20 -27 0
-4 -17 -20 -35 0
-4 -17 -20 -39 0
-4 -17 -20 -48 0
-4 -17 -20 -51 0
-4 -17 -27 -35 0
-4 -17 -27 -39 0
-4 -17 -27 -48 0
-4 -17 -27 -51 0
-4 -17 -35 -39 0
-4 -17 -35 -48 0
-4 -17 -35 -51 0
-4 -17 -39 -48 0
-4 -17 -39 -51 0
-4 -17 -48 -51 0
-4 -20 -27 -35 0
-4 -20 -27 -39 0
-4 -20 -27 -48 0
-4 -20 -27 -51 0
-4 -20 -35 -39 0
-4 -20 -35 -48 0
-4 -20 -35 -51 0
-4 -20 -39 -48 0
-4 -20 -39 -51 0
-4 -20 -48 -51 0
-4 -27 -35 -39 0
-4 -27 -35 -48 0
-4 -27 -35 -51 0
-4 -27 -39 -48 0
-4 -27 -39 -51 0
-4 -27 -48 -51 0
-4 -35 -39 -48 0
-4 -35 -39 -51 0
-4 -35 -48 -51 0
-4 -39 -48 -51 0
-9 -17 -20 -27 0
-9 -17 -20 -35 0
-9 -17 -20 -39 0
-9 -17 -20 -48 0
-9 -17 -20 -51 0
-9 -17 -27 -35 0
-9 -17 -27 -39 0
-9 -17 -27 -48 0
-9 -17 -27 -51 0
-9 -17 -35 -39 0
-9 -17 -35 -48 0
-9 -17 -35 -51 0
-9 -17 -39 -48 0
-9 -17 -39 -51 0
-9 -17 -48 -51 0
-9 -20 -27 -35 0
-9 -20 -27 -39 0
-9 -20 -27 -48 0
-9 -20 -27 -51 0
-9 -20 -35 -39 0
-9 -20 -35 -48 0
-9 -20 -35 -51 0
-9 -20 -39 -48 0
-9 -20 -39 -51 0
-9 -20 -48 -51 0
-9 -27 -35 -39 0
-9 -27 -35 -48 0
-9 -27 -35 -51 0
-9 -27 -39 -48 0
-9 -27 -39 -51 0
-9 -27 -48 -51 0
-9 -35 -39 -48 0
-9 -35 -39 -51 0
-9 -35 -48 -51 0
-9 -39 -48 -51 0
-17 -20 -27 -35 0
-17 -20 -27 -39 0
-17 -20 -27 -48 0
-17 -20 -27 -51 0
-17 -20 -35 -39 0
-17 -20 -35 -48 0
-17 -20 -35 -51 0
-17 -20 -39 -48 0
-17 -20 -39 -51 0
-17 -20 -48 -51 0
-17 -27 -35 -39 0
-17 -27 -35 -48 0
-17 -27 -35 -51 0
-17 -27 -39 -48 0
-17 -27 -39 -51 0
-17 -27 -48 -51 0
-17 -35 -39 -48 0
-17 -35 -39 -51 0
-17 -35 -48 -51 0
-17 -39 -48 -51 0
-20 -27 -35 -39 0
-20 -27 -35 -48 0
-20 -27 -35 -51 0
-20 -27 -39 -48 0
-20 -27 -39 -51 0
-20 -27 -48 -51 0
-20 -35 -39 -48 0
-20 -35 -39 -51 0
-20 -35 -48 -51 0
-20 -39 -48 -51 0
-27 -35 -39 -48 0
-27 -35 -39 -51 0
-27 -35 -48 -51 0
-27 -39 -48 -51 0
-35 -39 -48 -51 0
-5 -10 -18 -21 0
-5 -10 -18 -28 0
-5 -10 -18 -36 0
-5 -10 -18 -40 0
-5 -10 -18 -43 0
-5 -10 -18 -52 0
-5 -10 -21 -28 0
-5 -10 -21 -36 0
-5 -10 -21 -40 0
-5 -10 -21 -43 0
-5 -10 -21 -52 0
-5 -10 -28 -36 0
-5 -10 -28 -40 0
-5 -10 -28 -43 0
-5 -10 -28 -52 0
-5 -10 -36 -40 0
-5 -10 -36 -43 0
-5 -10 -36 -52 0
-5 -10 -40 -43 0
-5 -10 -40 -52 0
-5 -10 -43 -52 0
-5 -18 -21 -28 0
-5 -18 -21 -36 0
-5 -18 -21 -40 0
-5 -18 -21 -43 0
-5 -18 -21 -52 0
-5 -18 -28 -36 0
-5 -18 -28 -40 0
-5 -18 -28 -43 0
-5 -18 -28 -52 0
-5 -18 -36 -40 0
-5 -18 -36 -43 0
-5 -18 -36 -52 0
-5 -18 -40 -43 0
-5 -18 -40 -52 0
-5 -18 -43 -52 0
-5 -21 -28 -36 0
-5 -21 -28 -40 0
-5 -21 -28 -43 0
-5 -21 -28 -52 0
-5 -21 -36 -40 0
-5 -21 -36 -43 0
-5 -21 -36 -52 0
-5 -21 -40 -43 0
-5 -21 -40 -52 0
-5 -21 -43 -52 0
-5 -28 -36 -40 0
-5 -28 -36 -43 0
-5 -28 -36 -52 0
-5 -28 -40 -43 0
-5 -28 -40 -52 0
-5 -28 -43 -52 0
-5 -36 -40 -43 0
-5 -36 -40 -52 0
-5 -36 -43 -52 0
-5 -40 -43 -52 0
-10 -18 -21 -28 0
-10 -18 -21 -36 0
-10 -18 -21 -40 0
-10 -18 -21 -43 0
-10 -18 -21 -52 0
-10 -18 -28 -36 0
-10 -18 -28 -40 0
-10 -18 -28 -43 0
-10 -18 -28 -52 0
-10 -18 -36 -40 0
-10 -18 -36 -43 0
-10 -18 -36 -52 0
-10 -18 -40 -43 0
-10 -18 -40 -52 0
-10 -18 -43 -52 0
-10 -21 -28 -36 0
-10 -21 -28 -40 0
-10 -21 -28 -43 0
-10 -21 -28 -52 0
-10 -21 -36 -40 0
-10 -21 -36 -43 0
-10 -21 -36 -52 0
-10 -21 -40 -43 0
-10 -21 -40 -52 0
-10 -21 -43 -52 0
-10 -28 -36 -40 0
-10 -28 -36 -43 0
-10 -28 -36 -52 0
-10 -28 -40 -43 0
-10 -28 -40 -52 0
-10 -28 -43 -52 0
-10 -36 -40 -43 0
-10 -36 -40 -52 0
-10 -36 -43 -52 0
-10 -40 -43 -52 0
-18 -21 -28 -36 0
-18 -21 -28 -40 0
-18 -21 -28 -43 0
-18 -21 -28 -52 0
-18 -21 -36 -40 0
-18 -21 -36 -43 0
-18 -21 -36 -52 0
-18 -21 -40 -43 0
-18 -21 -40 -52 0
-18 -21 -43 -52 0
-18 -28 -36 -40 0
-18 -28 -36 -43 0
-18 -28 -36 -52 0
-18 -28 -40 -43 0
-18 -28 -40 -52 0
-18 -28 -43 -52 0
-18 -36 -40 -43 0
-18 -36 -40 -52 0
-18 -36 -43 -52 0
-18 -40 -43 -52 0
-21 -28 -36 -40 0
-21 -28 -36 -43 0
-21 -28 -36 -52 0
-21 -28 -40 -43 0
-21 -28 -40 -52 0
-21 -28 -43 -52 0
-21 -36 -40 -43 0
-21 -36 -40 -52 0
-21 -36 -43 -52 0
-21 -40 -43 -52 0
-28 -36 -40 -43 0
-28 -36 -40 -52 0
-28 -36 -43 -52 0
-28 -40 -43 -52 0
-36 -40 -43 -52 0
-6 -11 -13 -22 0
-6 -11 -13 -29 0
-6 -11 -13 -31 0
-6 -11 -13 -41 0
-6 -11 -13 -44 0
-6 -11 -13 -53 0
-6 -11 -22 -29 0
-6 -11 -22 -31 0
-6 -11 -22 -41 0
-6 -11 -22 -44 0
-6 -11 -22 -53 0
-6 -11 -29 -31 0
-6 -11 -29 -41 0
-6 -11 -29 -44 0
-6 -11 -29 -53 0
-6 -11 -31 -41 0
-6 -11 -31 -44 0
-6 -11 -31 -53 0
-6 -11 -41 -44 0
-6 -11 -41 -53 0
-6 -11 -44 -53 0
-6 -13 -22 -29 0
-6 -13 -22 -31 0
-6 -13 -22 -41 0
-6 -13 -22 -44 0
-6 -13 -22 -53 0
-6 -13 -29 -31 0
-6 -13 -29 -41 0
-6 -13 -29 -44 0
-6 -13 -29 -53 0
-6 -13 -31 -41 0
-6 -13 -31 -44 0
-6 -13 -31 -53 0
-6 -13 -41 -44 0
-6 -13 -41 -53 0
-6 -13 -44 -53 0
-6 -22 -29 -31 0
-6 -22 -29 -41 0
-6 -22 -29 -44 0
-6 -22 -29 -53 0
-6 -22 -31 -41 0
-6 -22 -31 -44 0
-6 -22 -31 -53 0
-6 -22 -41 -44 0
-6 -22 -41 -53 0
-6 -22 -44 -53 0
-6 -29 -31 -41 0
-6 -29 -31 -44 0
-6 -29 -31 -53 0
-6 -29 -41 -44 0
-6 -29 -41 -53 0
-6 -29 -44 -53 0
-6 -31 -41 -44 0
-6 -31 -41 -53 0
-6 -31 -44 -53 0
-6 -41 -44 -53 0
-11 -13 -22 -29 0
-11 -13 -22 -31 0
-11 -13 -22 -41 0
-11 -13 -22 -44 0
-11 -13 -22 -53 0
-11 -13 -29 -31 0
-11 -13 -29 -41 0
-11 -13 -29 -44 0
-11 -13 -29 -53 0
-11 -13 -31 -41 0
-11 -13 -31 -44 0
-11 -13 -31 -53 0
-11 -13 -41 -44 0
-11 -13 -41 -53 0
-11 -13 -44 -53 0
-11 -22 -29 -31 0
-11 -22 -29 -41 0
-11 -22 -29 -44 0
-11 -22 -29 -53 0
-11 -22 -31 -41 0
-11 -22 -31 -44 0
-11 -22 -31 -53 0
-11 -22 -41 -44 0
-11 -22 -41 -53 0
-11 -22 -44 -53 0
-11 -29 -31 -41 0
-11 -29 -31 -44 0
-11 -29 -31 -53 0
-11 -29 -41 -44 0
-11 -29 -41 -53 0
-11 -29 -44 -53 0
-11 -31 -41 -44 0
-11 -31 -41 -53 0
-11 -31 -44 -53 0
-11 -41 -44 -53 0
-13 -22 -29 -31 0
-13 -22 -29 -41 0
-13 -22 -29 -44 0
-13 -22 -29 -53 0
-13 -22 -31 -41 0
-13 -22 -31 -44 0
-13 -22 -31 -53 0
-13 -22 -41 -44 0
-13 -22 -41 -53 0
-13 -22 -44 -53 0
-13 -29 -31 -41 0
-13 -29 -31 -44 0
-13 -29 -31 -53 0
-13 -29 -41 -44 0
-13 -29 -41 -53 0
-13 -29 -44 -53 0
-13 -31 -41 -44 0
-13 -31 -41 -53 0
-13 -31 -44 -53 0
-13 -41 -44 -53 0
-22 -29 -31 -41 0
-22 -29 -31 -44 0
-22 -29 -31 -53 0
-22 -29 -41 -44 0
-22 -29 -41 -53 0
-22 -29 -44 -53 0
-22 -31 -41 -44 0
-22 -31 -41 -53 0
-22 -31 -44 -53 0
-22 -41 -44 -53 0
-29 -31 -41 -44 0
-29 -31 -41 -53 0
-29 -31 -44 -53 0
-29 -41 -44 -53 0
-31 -41 -44 -53 0
-1 -9 -13 -22 0
-1 -9 -13 -25 0
-1 -9 -13 -32 0
-1 -9 -13 -37 0
-1 -9 -13 -46 0
-1 -9 -13 -51 0
-1 -9 -22 -25 0
-1 -9 -22 -32 0
-1 -9 -22 -37 0
-1 -9 -22 -46 0
-1 -9 -22 -51 0
-1 -9 -25 -32 0
-1 -9 -25 -37 0
-1 -9 -25 -46 0
-1 -9 -25 -51 0
-1 -9 -32 -37 0
-1 -9 -32 -46 0
-1 -9 -32 -51 0
-1 -9 -37 -46 0
-1 -9 -37 -51 0
-1 -9 -46 -51 0
-1 -13 -22 -25 0
-1 -13 -22 -32 0
-1 -13 -22 -37 0
-1 -13 -22 -46 0
-1 -13 -22 -51 0
-1 -13 -25 -32 0
-1 -13 -25 -37 0
-1 -13 -25 -46 0
-1 -13 -25 -51 0
-1 -13 -32 -37 0
-1 -13 -32 -46 0
-1 -13 -32 -51 0
-1 -13 -37 -46 0
-1 -13 -37 -51 0
-1 -13 -46 -51 0
-1 -22 -25 -32 0
-1 -22 -25 -37 0
-1 -22 -25 -46 0
-1 -22 -25 -51 0
-1 -22 -32 -37 0
-1 -22 -32 -46 0
-1 -22 -32 -51 0
-1 -22 -37 -46 0
-1 -22 -37 -51 0
-1 -22 -46 -51 0
-1 -25 -32 -37 0
-1 -25 -32 -46 0
-1 -25 -32 -51 0
-1 -25 -37 -46 0
-1 -25 -37 -51 0
-1 -25 -46 -51 0
-1 -32 -37 -46 0
-1 -32 -37 -51 0
-1 -32 -46 -51 0
-1 -37 -46 -51 0
-9 -13 -22 -25 0
-9 -13 -22 -32 0
-9 -13 -22 -37 0
-9 -13 -22 -46 0
-9 -13 -22 -51 0
-9 -13 -25 -32 0
-9 -13 -25 -37 0
-9 -13 -25 -46 0
-9 -13 -25 -51 0
-9 -13 -32 -37 0
-9 -13 -32 -46 0
-9 -13 -32 -51 0
-9 -13 -37 -46 0
-9 -13 -37 -51 0
-9 -13 -46 -51 0
-9 -22 -25 -32 0
-9 -22 -25 -37 0
-9 -22 -25 -46 0
-9 -22 -25 -51 0
-9 -22 -32 -37 0
-9 -22 -32 -46 0
-9 -22 -32 -51 0
-9 -22 -37 -46 0
-9 -22 -37 -51 0
-9 -22 -46 -51 0
-9 -25 -32 -37 0
-9 -25 -32 -46 0
-9 -25 -32 -51 0
-9 -25 -37 -46 0
-9 -25 -37 -51 0
-9 -25 -46 -51 0
-9 -32 -37 -46 0
-9 -32 -37 -51 0
-9 -32 -46 -51 0
-9 -37 -46 -51 0
-13 -22 -25 -32 0
-13 -22 -25 -37 0
-13 -22 -25 -46 0
-13 -22 -25 -51 0
-13 -22 -32 -37 0
-13 -22 -32 -46 0
-13 -22 -32 -51 0
-13 -22 -37 -46 0
-13 -22 -37 -51 0
-13 -22 -46 -51 0
-13 -25 -32 -37 0
-13 -25 -32 -46 0
-13 -25 -32 -51 0
-13 -25 -37 -46 0
-13 -25 -37 -51 0
-13 -25 -46 -51 0
-13 -32 -37 -46 0
-13 -32 -37 -51 0
-13 -32 -46 -51 0
-13 -37 -46 -51 0
-22 -25 -32 -37 0
-22 -25 -32 -46 0
-22 -25 -32 -51 0
-22 -25 -37 -46 0
-22 -25 -37 -51 0
-22 -25 -46 -51 0
-22 -32 -37 -46 0
-22 -32 -37 -51 0
-22 -32 -46 -51 0
-22 -37 -46 -51 0
-25 -32 -37 -46 0
-25 -32 -37 -51 0
-25 -32 -46 -51 0
-25 -37 -46 -51 0
-32 -37 -46 -51 0
-2 -10 -14 -23 0
-2 -10 -14 -26 0
-2 -10 -14 -33 0
-2 -10 -14 -38 0
-2 -10 -14 -47 0
-2 -10 -14 -52 0
-2 -10 -23 -26 0
-2 -10 -23 -33 0
-2 -10 -23 -38 0
-2 -10 -23 -47 0
-2 -10 -23 -52 0
-2 -10 -26 -33 0
-2 -10 -26 -38 0
-2 -10 -26 -47 0
-2 -10 -26 -52 0
-2 -10 -33 -38 0
-2 -10 -33 -47 0
-2 -10 -33 -52 0
-2 -10 -38 -47 0
-2 -10 -38 -52 0
-2 -10 -47 -52 0
-2 -14 -23 -26 0
-2 -14 -23 -33 0
-2 -14 -23 -38 0
-2 -14 -23 -47 0
-2 -14 -23 -52 0
-2 -14 -26 -33 0
-2 -14 -26 -38 0
-2 -14 -26 -47 0
-2 -14 -26 -52 0
-2 -14 -33 -38 0
-2 -14 -33 -47 0
-2 -14 -33 -52 0
-2 -14 -38 -47 0
-2 -14 -38 -52 0
-2 -14 -47 -52 0
-2 -23 -26 -33 0
-2 -23 -26 -38 0
-2 -23 -26 -47 0
-2 -23 -26 -52 0
-2 -23 -33 -38 0
-2 -23 -33 -47 0
-2 -23 -33 -52 0
-2 -23 -38 -47 0
-2 -23 -38 -52 0
-2 -23 -47 -52 0
-2 -26 -33 -38 0
-2 -26 -33 -47 0
-2 -26 -33 -52 0
-2 -26 -38 -47 0
-2 -26 -38 -52 0
-2 -26 -47 -52 0
-2 -33 -38 -47 0
-2 -33 -38 -52 0
-2 -33 -47 -52 0
-2 -38 -47 -52 0
-10 -14 -23 -26 0
-10 -14 -23 -33 0
-10 -14 -23 -38 0
-10 -14 -23 -47 0
-10 -14 -23 -52 0
-10 -14 -26 -33 0
-10 -14 -26 -38 0
-10 -14 -26 -47 0
-10 -14 -26 -52 0
-10 -14 -33 -38 0
-10 -14 -33 -47 0
-10 -14 -33 -52 0
-10 -14 -38 -47 0
-10 -14 -38 -52 0
-10 -14 -47 -52 0
-10 -23 -26 -33 0
-10 -23 -26 -38 0
-10 -23 -26 -47 0
-10 -23 -26 -52 0
-10 -23 -33 -38 0
-10 -23 -33 -47 0
-10 -23 -33 -52 0
-10 -23 -38 -47 0
-10 -23 -38 -52 0
-10 -23 -47 -52 0
-10 -26 -33 -38 0
-10 -26 -33 -47 0
-10 -26 -33 -52 0
-10 -26 -38 -47 0
-10 -26 -38 -52 0
-10 -26 -47 -52 0
-10 -33 -38 -47 0
-10 -33 -38 -52 0
-10 -33 -47 -52 0
-10 -38 -47 -52 0
-14 -23 -26 -33 0
-14 -23 -26 -38 0
-14 -23 -26 -47 0
-14 -23 -26 -52 0
-14 -23 -33 -38 0
-14 -23 -33 -47 0
-14 -23 -33 -52 0
-14 -23 -38 -47 0
-14 -23 -38 -52 0
-14 -23 -47 -52 0
-14 -26 -33 -38 0
-14 -26 -33 -47 0
-14 -26 -33 -52 0
-14 -26 -38 -47 0
-14 -26 -38 -52 0
-14 -26 -47 -52 0
-14 -33 -38 -47 0
-14 -33 -38 -52 0
-14 -33 -47 -52 0
-14 -38 -47 -52 0
-23 -26 -33 -38 0
-23 -26 -33 -47 0
-23 -26 -33 -52 0
-23 -26 -38 -47 0
-23 -26 -38 -52 0
-23 -26 -47 -52 0
-23 -33 -38 -47 0
-23 -33 -38 -52 0
-23 -33 -47 -52 0
-23 -38 -47 -52 0
-26 -33 -38 -47 0
-26 -33 -38 -52 0
-26 -33 -47 -52 0
-26 -38 -47 -52 0
-33 -38 -47 -52 0
-3 -11 -15 -24 0
-3 -11 -15 -27 0
-3 -11 -15 -34 0
-3 -11 -15 -39 0
-3 -11 -15 -48 0
-3 -11 -15 -53 0
-3 -11 -24 -27 0
-3 -11 -24 -34 0
-3 -11 -24 -39 0
-3 -11 -24 -48 0
-3 -11 -24 -53 0
-3 -11 -27 -34 0
-3 -11 -27 -39 0
-3 -11 -27 -48 0
-3 -11 -27 -53 0
-3 -11 -34 -39 0
-3 -11 -34 -48 0
-3 -11 -34 -53 0
-3 -11 -39 -48 0
-3 -11 -39 -53 0
-3 -11 -48 -53 0
-3 -15 -24 -27 0
-3 -15 -24 -34 0
-3 -15 -24 -39 0
-3 -15 -24 -48 0
-3 -15 -24 -53 0
-3 -15 -27 -34 0
-3 -15 -27 -39 0
-3 -15 -27 -48 0
-3 -15 -27 -53 0
-3 -15 -34 -39 0
-3 -15 -34 -48 0
-3 -15 -34 -53 0
-3 -15 -39 -48 0
-3 -15 -39 -53 0
-3 -15 -48 -53 0
-3 -24 -27 -34 0
-3 -24 -27 -39 0
-3 -24 -27 -48 0
-3 -24 -27 -53 0
-3 -24 -34 -39 0
-3 -24 -34 -48 0
-3 -24 -34 -53 0
-3 -24 -39 -48 0
-3 -24 -39 -53 0
-3 -24 -48 -53 0
-3 -27 -34 -39 0
-3 -27 -34 -48 0
-3 -27 -34 -53 0
-3 -27 -39 -48 0
-3 -27 -39 -53 0
-3 -27 -48 -53 0
-3 -34 -39 -48 0
-3 -34 -39 -53 0
-3 -34 -48 -53 0
-3 -39 -48 -53 0
-11 -15 -24 -27 0
-11 -15 -24 -34 0
-11 -15 -24 -39 0
-11 -15 -24 -48 0
-11 -15 -24 -53 0
-11 -15 -27 -34 0
-11 -15 -27 -39 0
-11 -15 -27 -48 0
-11 -15 -27 -53 0
-11 -15 -34 -39 0
-11 -15 -34 -48 0
-11 -15 -34 -53 0
-11 -15 -39 -48 0
-11 -15 -39 -53 0
-11 -15 -48 -53 0
-11 -24 -27 -34 0
-11 -24 -27 -39 0
-11 -24 -27 -48 0
-11 -24 -27 -53 0
-11 -24 -34 -39 0
-11 -24 -34 -48 0
-11 -24 -34 -53 0
-11 -24 -39 -48 0
-11 -24 -39 -53 0
-11 -24 -48 -53 0
-11 -27 -34 -39 0
-11 -27 -34 -48 0
-11 -27 -34 -53 0
-11 -27 -39 -48 0
-11 -27 -39 -53 0
-11 -27 -48 -53 0
-11 -34 -39 -48 0
-11 -34 -39 -53 0
-11 -34 -48 -53 0
-11 -39 -48 -53 0
-15 -24 -27 -34 0
-15 -24 -27 -39 0
-15 -24 -27 -48 0
-15 -24 -27 -53 0
-15 -24 -34 -39 0
-15 -24 -34 -48 0
-15 -24 -34 -53 0
-15 -24 -39 -48 0
-15 -24 -39 -53 0
-15 -24 -48 -53 0
-15 -27 -34 -39 0
-15 -27 -34 -48 0
-15 -27 -34 -53 0
-15 -27 -39 -48 0
-15 -27 -39 -53 0
-15 -27 -48 -53 0
-15 -34 -39 -48 0
-15 -34 -39 -53 0
-15 -34 -48 -53 0
-15 -39 -48 -53 0
-24 -27 -34 -39 0
-24 -27 -34 -48 0
-24 -27 -34 -53 0
-24 -27 -39 -48 0
-24 -27 -39 -53 0
-24 -27 -48 -53 0
-24 -34 -39 -48 0
-24 -34 -39 -53 0
-24 -34 -48 -53 0
-24 -39 -48 -53 0
-27 -34 -39 -48 0
-27 -34 -39 -53 0
-27 -34 -48 -53 0
-27 -39 -48 -53 0
-34 -39 -48 -53 0
-4 -12 -16 -19 0
-4 -12 -16 -28 0
-4 -12 -16 -35 0
-4 -12 -16 -40 0
-4 -12 -16 -43 0
-4 -12 -16 -54 0
-4 -12 -19 -28 0
-4 -12 -19 -35 0
-4 -12 -19 -40 0
-4 -12 -19 -43 0
-4 -12 -19 -54 0
-4 -12 -28 -35 0
-4 -12 -28 -40 0
-4 -12 -28 -43 0
-4 -12 -28 -54 0
-4 -12 -35 -40 0
-4 -12 -35 -43 0
-4 -12 -35 -54 0
-4 -12 -40 -43 0
-4 -12 -40 -54 0
-4 -12 -43 -54 0
-4 -16 -19 -28 0
-4 -16 -19 -35 0
-4 -16 -19 -40 0
-4 -16 -19 -43 0
-4 -16 -19 -54 0
-4 -16 -28 -35 0
-4 -16 -28 -40 0
-4 -16 -28 -43 0
-4 -16 -28 -54 0
-4 -16 -35 -40 0
-4 -16 -35 -43 0
-4 -16 -35 -54 0
-4 -16 -40 -43 0
-4 -16 -40 -54 0
-4 -16 -43 -54 0
-4 -19 -28 -35 0
-4 -19 -28 -40 0
-4 -19 -28 -43 0
-4 -19 -28 -54 0
-4 -19 -35 -40 0
-4 -19 -35 -43 0
-4 -19 -35 -54 0
-4 -19 -40 -43 0
-4 -19 -40 -54 0
-4 -19 -43 -54 0
-4 -28 -35 -40 0
-4 -28 -35 -43 0
-4 -28 -35 -54 0
-4 -28 -40 -43 0
-4 -28 -40 -54 0
-4 -28 -43 -54 0
-4 -35 -40 -43 0
-4 -35 -40 -54 0
-4 -35 -43 -54 0
-4 -40 -43 -54 0
-12 -16 -19 -28 0
-12 -16 -19 -35 0
-12 -16 -19 -40 0
-12 -16 -19 -43 0
-12 -16 -19 -54 0
-12 -16 -28 -35 0
-12 -16 -28 -40 0
-12 -16 -28 -43 0
-12 -16 -28 -54 0
-12 -16 -35 -40 0
-12 -16 -35 -43 0
-12 -16 -35 -54 0
-12 -16 -40 -43 0
-12 -16 -40 -54 0
-12 -16 -43 -54 0
-12 -19 -28 -35 0
-12 -19 -28 -40 0
-12 -19 -28 -43 0
-12 -19 -28 -54 0
-12 -19 -35 -40 0
-12 -19 -35 -43 0
-12 -19 -35 -54 0
-12 -19 -40 -43 0
-12 -19 -40 -54 0
-12 -19 -43 -54 0
-12 -28 -35 -40 0
-12 -28 -35 -43 0
-12 -28 -35 -54 0
-12 -28 -40 -43 0
-12 -28 -40 -54 0
-12 -28 -43 -54 0
-12 -35 -40 -43 0
-12 -35 -40 -54 0
-12 -35 -43 -54 0
-12 -40 -43 -54 0
-16 -19 -28 -35 0
-16 -19 -28 -40 0
-16 -19 -28 -43 0
-16 -19 -28 -54 0
-16 -19 -35 -40 0
-16 -19 -35 -43 0
-16 -19 -35 -54 0
-16 -19 -40 -43 0
-16 -19 -40 -54 0
-16 -19 -43 -54 0
-16 -28 -35 -40 0
-16 -28 -35 -43 0
-16 -28 -35 -54 0
-16 -28 -40 -43 0
-16 -28 -40 -54 0
-16 -28 -43 -54 0
-16 -35 -40 -43 0
-16 -35 -40 -54 0
-16 -35 -43 -54 0
-16 -40 -43 -54 0
-19 -28 -35 -40 0
-19 -28 -35 -43 0
-19 -28 -35 -54 0
-19 -28 -40 -43 0
-19 -28 -40 -54 0
-19 -28 -43 -54 0
-19 -35 -40 -43 0
-19 -35 -40 -54 0
-19 -35 -43 -54 0
-19 -40 -43 -54 0
-28 -35 -40 -43 0
-28 -35 -40 -54 0
-28 -35 -43 -54 0
-28 -40 -43 -54 0
-35 -40 -43 -54 0
-5 -7 -17 -20 0
-5 -7 -17 -29 0
-5 -7 -17 -36 0
-5 -7 -17 -41 0
-5 -7 -17 -44 0
-5 -7 -17 -49 0
-5 -7 -20 -29 0
-5 -7 -20 -36 0
-5 -7 -20 -41 0
-5 -7 -20 -44 0
-5 -7 -20 -49 0
-5 -7 -29 -36 0
-5 -7 -29 -41 0
-5 -7 -29 -44 0
-5 -7 -29 -49 0
-5 -7 -36 -41 0
-5 -7 -36 -44 0
-5 -7 -36 -49 0
-5 -7 -41 -44 0
-5 -7 -41 -49 0
-5 -7 -44 -49 0
-5 -17 -20 -29 0
-5 -17 -20 -36 0
-5 -17 -20 -41 0
-5 -17 -20 -44 0
-5 -17 -20 -49 0
-5 -17 -29 -36 0
-5 -17 -29 -41 0
-5 -17 -29 -44 0
-5 -17 -29 -49 0
-5 -17 -36 -41 0
-5 -17 -36 -44 0
-5 -17 -36 -49 0
-5 -17 -41 -44 0
-5 -17 -41 -49 0
-5 -17 -44 -49 0
-5 -20 -29 -36 0
-5 -20 -29 -41 0
-5 -20 -29 -44 0
-5 -20 -29 -49 0
-5 -20 -36 -41 0
-5 -20 -36 -44 0
-5 -20 -36 -49 0
-5 -20 -41 -44 0
-5 -20 -41 -49 0
-5 -20 -44 -49 0
-5 -29 -36 -41 0
-5 -29 -36 -44 0
-5 -29 -36 -49 0
-5 -29 -41 -44 0
-5 -29 -41 -49 0
-5 -29 -44 -49 0
-5 -36 -41 -44 0
-5 -36 -41 -49 0
-5 -36 -44 -49 0
-5 -41 -44 -49 0
-7 -17 -20 -29 0
-7 -17 -20 -36 0
-7 -17 -20 -41 0
-7 -17 -20 -44 0
-7 -17 -20 -49 0
-7 -17 -29 -36 0
-7 -17 -29 -41 0
-7 -17 -29 -44 0
-7 -17 -29 -49 0
-7 -17 -36 -41 0
-7 -17 -36 -44 0
-7 -17 -36 -49 0
-7 -17 -41 -44 0
-7 -17 -41 -49 0
-7 -17 -44 -49 0
-7 -20 -29 -36 0
-7 -20 -29 -41 0
-7 -20 -29 -44 0
-7 -20 -29 -49 0
-7 -20 -36 -41 0
-7 -20 -36 -44 0
-7 -20 -36 -49 0
-7 -20 -41 -44 0
-7 -20 -41 -49 0
-7 -20 -44 -49 0
-7 -29 -36 -41 0
-7 -29 -36 -44 0
-7 -29 -36 -49 0
-7 -29 -41 -44 0
-7 -29 -41 -49 0
-7 -29 -44 -49 0
-7 -36 -41 -44 0
-7 -36 -41 -49 0
-7 -36 -44 -49 0
-7 -41 -44 -49 0
-17 -20 -29 -36 0
-17 -20 -29 -41 0
-17 -20 -29 -44 0
-17 -20 -29 -49 0
-17 -20 -36 -41 0
-17 -20 -36 -44 0
-17 -20 -36 -49 0
-17 -20 -41 -44 0
-17 -20 -41 -49 0
-17 -20 -44 -49 0
-17 -29 -36 -41 0
-17 -29 -36 -44 0
-17 -29 -36 -49 0
-17 -29 -41 -44 0
-17 -29 -41 -49 0
-17 -29 -44 -49 0
-17 -36 -41 -44 0
-17 -36 -41 -49 0
-17 -36 -44 -49 0
-17 -41 -44 -49 0
-20 -29 -36 -41 0
-20 -29 -36 -44 0
-20 -29 -36 -49 0
-20 -29 -41 -44 0
-20 -29 -41 -49 0
-20 -29 -44 -49 0
-20 -36 -41 -44 0
-20 -36 -41 -49 0
-20 -36 -44 -49 0
-20 -41 -44 -49 0
-29 -36 -41 -44 0
-29 -36 -41 -49 0
-29 -36 -44 -49 0
-29 -41 -44 -49 0
-36 -41 -44 -49 0
-6 -8 -18 -21 0
-6 -8 -18 -30 0
-6 -8 -18 -31 0
-6 -8 -18 -42 0
-6 -8 -18 -45 0
-6 -8 -18 -50 0
-6 -8 -21 -30 0
-6 -8 -21 -31 0
-6 -8 -21 -42 0
-6 -8 -21 -45 0
-6 -8 -21 -50 0
-6 -8 -30 -31 0
-6 -8 -30 -42 0
-6 -8 -30 -45 0
-6 -8 -30 -50 0
-6 -8 -31 -42 0
-6 -8 -31 -45 0
-6 -8 -31 -50 0
-6 -8 -42 -45 0
-6 -8 -42 -50 0
-6 -8 -45 -50 0
-6 -18 -21 -30 0
-6 -18 -21 -31 0
-6 -18 -21 -42 0
-6 -18 -21 -45 0
-6 -18 -21 -50 0
-6 -18 -30 -31 0
-6 -18 -30 -42 0
-6 -18 -30 -45 0
-6 -18 -30 -50 0
-6 -18 -31 -42 0
-6 -18 -31 -45 0
-6 -18 -31 -50 0
-6 -18 -42 -45 0
-6 -18 -42 -50 0
-6 -18 -45 -50 0
-6 -21 -30 -31 0
-6 -21 -30 -42 0
-6 -21 -30 -45 0
-6 -21 -30 -50 0
-6 -21 -31 -42 0
-6 -21 -31 -45 0
-6 -21 -31 -50 0
-6 -21 -42 -45 0
-6 -21 -42 -50 0
-6 -21 -45 -50 0
-6 -30 -31 -42 0
-6 -30 -31 -45 0
-6 -30 -31 -50 0
-6 -30 -42 -45 0
-6 -30 -42 -50 0
-6 -30 -45 -50 0
-6 -31 -42 -45 0
-6 -31 -42 -50 0
-6 -31 -45 -50 0
-6 -42 -45 -50 0
-8 -18 -21 -30 0
-8 -18 -21 -31 0
-8 -18 -21 -42 0
-8 -18 -21 -45 0
-8 -18 -21 -50 0
-8 -18 -30 -31 0
-8 -18 -30 -42 0
-8 -18 -30 -45 0
-8 -18 -30 -50 0
-8 -18 -31 -42 0
-8 -18 -31 -45 0
-8 -18 -31 -50 0
-8 -18 -42 -45 0
-8 -18 -42 -50 0
-8 -18 -45 -50 0
-8 -21 -30 -31 0
-8 -21 -30 -42 0
-8 -21 -30 -45 0
-8 -21 -30 -50 0
-8 -21 -31 -42 0
-8 -21 -31 -45 0
-8 -21 -31 -50 0
-8 -21 -42 -45 0
-8 -21 -42 -50 0
-8 -21 -45 -50 0
-8 -30 -31 -42 0
-8 -30 -31 -45 0
-8 -30 -31 -50 0
-8 -30 -42 -45 0
-8 -30 -42 -50 0
-8 -30 -45 -50 0
-8 -31 -42 -45 0
-8 -31 -42 -50 0
-8 -31 -45 -50 0
-8 -42 -45 -50 0
-18 -21 -30 -31 0
-18 -21 -30 -42 0
-18 -21 -30 -45 0
-18 -21 -30 -50 0
-18 -21 -31 -42 0
-18 -21 -31 -45 0
-18 -21 -31 -50 0
-18 -21 -42 -45 0
-18 -21 -42 -50 0
-18 -21 -45 -50 0
-18 -30 -31 -42 0
-18 -30 -31 -45 0
-18 -30 -31 -50 0
-18 -30 -42 -45 0
-18 -30 -42 -50 0
-18 -30 -45 -50 0
-18 -31 -42 -45 0
-18 -31 -42 -50 0
-18 -31 -45 -50 0
-18 -42 -45 -50 0
-21 -30 -31 -42 0
-21 -30 -31 -45 0
-21 -30 -31 -50 0
-21 -30 -42 -45 0
-21 -30 -42 -50 0
-21 -30 -45 -50 0
-21 -31 -42 -45 0
-21 -31 -42 -50 0
-21 -31 -45 -50 0
-21 -42 -45 -50 0
-30 -31 -42 -45 0
-30 -31 -42 -50 0
-30 -31 -45 -50 0
-30 -42 -45 -50 0
-31 -42 -45 -50 0
-1 -10 -16 -20 0
-1 -10 -16 -30 0
-1 -10 -16 -35 0
-1 -10 -16 -37 0
-1 -10 -16 -46 0
-1 -10 -16 -49 0
-1 -10 -20 -30 0
-1 -10 -20 -35 0
-1 -10 -20 -37 0
-1 -10 -20 -46 0
-1 -10 -20 -49 0
-1 -10 -30 -35 0
-1 -10 -30 -37 0
-1 -10 -30 -46 0
-1 -10 -30 -49 0
-1 -10 -35 -37 0
-1 -10 -35 -46 0
-1 -10 -35 -49 0
-1 -10 -37 -46 0
-1 -10 -37 -49 0
-1 -10 -46 -49 0
-1 -16 -20 -30 0
-1 -16 -20 -35 0
-1 -16 -20 -37 0
-1 -16 -20 -46 0
-1 -16 -20 -49 0
-1 -16 -30 -35 0
-1 -16 -30 -37 0
-1 -16 -30 -46 0
-1 -16 -30 -49 0
-1 -16 -35 -37 0
-1 -16 -35 -46 0
-1 -16 -35 -49 0
-1 -16 -37 -46 0
-1 -16 -37 -49 0
-1 -16 -46 -49 0
-1 -20 -30 -35 0
-1 -20 -30 -37 0
-1 -20 -30 -46 0
-1 -20 -30 -49 0
-1 -20 -35 -37 0
-1 -20 -35 -46 0
-1 -20 -35 -49 0
-1 -20 -37 -46 0
-1 -20 -37 -49 0
-1 -20 -46 -49 0
-1 -30 -35 -37 0
-1 -30 -35 -46 0
-1 -30 -35 -49 0
-1 -30 -37 -46 0
-1 -30 -37 -49 0
-1 -30 -46 -49 0
-1 -35 -37 -46 0
-1 -35 -37 -49 0
-1 -35 -46 -49 0
-1 -37 -46 -49 0
-10 -16 -20 -30 0
-10 -16 -20 -35 0
-10 -16 -20 -37 0
-10 -16 -20 -46 0
-10 -16 -20 -49 0
-10 -16 -30 -35 0
-10 -16 -30 -37 0
-10 -16 -30 -46 0
-10 -16 -30 -49 0
-10 -16 -35 -37 0
-10 -16 -35 -46 0
-10 -16 -35 -49 0
-10 -16 -37 -46 0
-10 -16 -37 -49 0
-10 -16 -46 -49 0
-10 -20 -30 -35 0
-10 -20 -30 -37 0
-10 -20 -30 -46 0
-10 -20 -30 -49 0
-10 -20 -35 -37 0
-10 -20 -35 -46 0
-10 -20 -35 -49 0
-10 -20 -37 -46 0
-10 -20 -37 -49 0
-10 -20 -46 -49 0
-10 -30 -35 -37 0
-10 -30 -35 -46 0
-10 -30 -35 -49 0
-10 -30 -37 -46 0
-10 -30 -37 -49 0
-10 -30 -46 -49 0
-10 -35 -37 -46 0
-10 -35 -37 -49 0
-10 -35 -46 -49 0
-10 -37 -46 -49 0
-16 -20 -30 -35 0
-16 -20 -30 -37 0
-16 -20 -30 -46 0
-16 -20 -30 -49 0
-16 -20 -35 -37 0
-16 -20 -35 -46 0
-16 -20 -35 -49 0
-16 -20 -37 -46 0
-16 -20 -37 -49 0
-16 -20 -46 -49 0
-16 -30 -35 -37 0
-16 -30 -35 -46 0
-16 -30 -35 -49 0
-16 -30 -37 -46 0
-16 -30 -37 -49 0
-16 -30 -46 -49 0
-16 -35 -37 -46 0
-16 -35 -37 -49 0
-16 -35 -46 -49 0
-16 -37 -46 -49 0
-20 -30 -35 -37 0
-20 -30 -35 -46 0
-20 -30 -35 -49 0
-20 -30 -37 -46 0
-20 -30 -37 -49 0
-20 -30 -46 -49 0
-20 -35 -37 -46 0
-20 -35 -37 -49 0
-20 -35 -46 -49 0
-20 -37 -46 -49 0
-30 -35 -37 -46 0
-30 -35 -37 -49 0
-30 -35 -46 -49 0
-30 -37 -46 -49 0
-35 -37 -46 -49 0
-2 -11 -17 -21 0
-2 -11 -17 -25 0
-2 -11 -17 -36 0
-2 -11 -17 -38 0
-2 -11 -17 -47 0
-2 -11 -17 -50 0
-2 -11 -21 -25 0
-2 -11 -21 -36 0
-2 -11 -21 -38 0
-2 -11 -21 -47 0
-2 -11 -21 -50 0
-2 -11 -25 -36 0
-2 -11 -25 -38 0
-2 -11 -25 -47 0
-2 -11 -25 -50 0
-2 -11 -36 -38 0
-2 -11 -36 -47 0
-2 -11 -36 -50 0
-2 -11 -38 -47 0
-2 -11 -38 -50 0
-2 -11 -47 -50 0
-2 -17 -21 -25 0
-2 -17 -21 -36 0
-2 -17 -21 -38 0
-2 -17 -21 -47 0
-2 -17 -21 -50 0
-2 -17 -25 -36 0
-2 -17 -25 -38 0
-2 -17 -25 -47 0
-2 -17 -25 -50 0
-2 -17 -36 -38 0
-2 -17 -36 -47 0
-2 -17 -36 -50 0
-2 -17 -38 -47 0
-2 -17 -38 -50 0
-2 -17 -47 -50 0
-2 -21 -25 -36 0
-2 -21 -25 -38 0
-2 -21 -25 -47 0
-2 -21 -25 -50 0
-2 -21 -36 -38 0
-2 -21 -36 -47 0
-2 -21 -36 -50 0
-2 -21 -38 -47 0
-2 -21 -38 -50 0
-2 -21 -47 -50 0
-2 -25 -36 -38 0
-2 -25 -36 -47 0
-2 -25 -36 -50 0
-2 -25 -38 -47 0
-2 -25 -38 -50 0
-2 -25 -47 -50 0
-2 -36 -38 -47 0
-2 -36 -38 -50 0
-2 -36 -47 -50 0
-2 -38 -47 -50 0
-11 -17 -21 -25 0
-11 -17 -21 -36 0
-11 -17 -21 -38 0
-11 -17 -21 -47 0
-11 -17 -21 -50 0
-11 -17 -25 -36 0
-11 -17 -25 -38 0
-11 -17 -25 -47 0
-11 -17 -25 -50 0
-11 -17 -36 -38 0
-11 -17 -36 -47 0
-11 -17 -36 -50 0
-11 -17 -38 -47 0
-11 -17 -38 -50 0
-11 -17 -47 -50 0
-11 -21 -25 -36 0
-11 -21 -25 -38 0
-11 -21 -25 -47 0
-11 -21 -25 -50 0
-11 -21 -36 -38 0
-11 -21 -36 -47 0
-11 -21 -36 -50 0
-11 -21 -38 -47 0
-11 -21 -38 -50 0
-11 -21 -47 -50 0
-11 -25 -36 -38 0
-11 -25 -36 -47 0
-11 -25 -36 -50 0
-11 -25 -38 -47 0
-11 -25 -38 -50 0
-11 -25 -47 -50 0
-11 -36 -38 -47 0
-11 -36 -38 -50 0
-11 -36 -47 -50 0
-11 -38 -47 -50 0
-17 -21 -25 -36 0
-17 -21 -25 -38 0
-17 -21 -25 -47 0
-17 -21 -25 -50 0
-17 -21 -36 -38 0
-17 -21 -36 -47 0
-17 -21 -36 -50 0
-17 -21 -38 -47 0
-17 -21 -38 -50 0
-17 -21 -47 -50 0
-17 -25 -36 -38 0
-17 -25 -36 -47 0
-17 -25 -36 -50 0
-17 -25 -38 -47 0
-17 -25 -38 -50 0
-17 -25 -47 -50 0
-17 -36 -38 -47 0
-17 -36 -38 -50 0
-17 -36 -47 -50 0
-17 -38 -47 -50 0
-21 -25 -36 -38 0
-21 -25 -36 -47 0
-21 -25 -36 -50 0
-21 -25 -38 -47 0
-21 -25 -38 -50 0
-21 -25 -47 -50 0
-21 -36 -38 -47 0
-21 -36 -38 -50 0
-21 -36 -47 -50 0
-21 -38 -47 -50 0
-25 -36 -38 -47 0
-25 -36 -38 -50 0
-25 -36 -47 -50 0
-25 -38 -47 -50 0
-36 -38 -47 -50 0
-3 -12 -18 -22 0
-3 -12 -18 -26 0
-3 -12 -18 -31 0
-3 -12 -18 -39 0
-3 -12 -18 -48 0
-3 -12 -18 -51 0
-3 -12 -22 -26 0
-3 -12 -22 -31 0
-3 -12 -22 -39 0
-3 -12 -22 -48 0
-3 -12 -22 -51 0
-3 -12 -26 -31 0
-3 -12 -26 -39 0
-3 -12 -26 -48 0
-3 -12 -26 -51 0
-3 -12 -31 -39 0
-3 -12 -31 -48 0
-3 -12 -31 -51 0
-3 -12 -39 -48 0
-3 -12 -39 -51 0
-3 -12 -48 -51 0
-3 -18 -22 -26 0
-3 -18 -22 -31 0
-3 -18 -22 -39 0
-3 -18 -22 -48 0
-3 -18 -22 -51 0
-3 -18 -26 -31 0
-3 -18 -26 -39 0
-3 -18 -26 -48 0
-3 -18 -26 -51 0
-3 -18 -31 -39 0
-3 -18 -31 -48 0
-3 -18 -31 -51 0
-3 -18 -39 -48 0
-3 -18 -39 -51 0
-3 -18 -48 -51 0
-3 -22 -26 -31 0
-3 -22 -26 -39 0
-3 -22 -26 -48 0
-3 -22 -26 -51 0
-3 -22 -31 -39 0
-3 -22 -31 -48 0
-3 -22 -31 -51 0
-3 -22 -39 -48 0
-3 -22 -39 -51 0
-3 -22 -48 -51 0
-3 -26 -31 -39 0
-3 -26 -31 -48 0
-3 -26 -31 -51 0
-3 -26 -39 -48 0
-3 -26 -39 -51 0
-3 -26 -48 -51 0
-3 -31 -39 -48 0
-3 -31 -39 -51 0
-3 -31 -48 -51 0
-3 -39 -48 -51 0
-12 -18 -22 -26 0
-12 -18 -22 -31 0
-12 -18 -22 -39 0
-12 -18 -22 -48 0
-12 -18 -22 -51 0
-12 -18 -26 -31 0
-12 -18 -26 -39 0
-12 -18 -26 -48 0
-12 -18 -26 -51 0
-12 -18 -31 -39 0
-12 -18 -31 -48 0
-12 -18 -31 -51 0
-12 -18 -39 -48 0
-12 -18 -39 -51 0
-12 -18 -48 -51 0
-12 -22 -26 -31 0
-12 -22 -26 -39 0
-12 -22 -26 -48 0
-12 -22 -26 -51 0
-12 -22 -31 -39 0
-12 -22 -31 -48 0
-12 -22 -31 -51 0
-12 -22 -39 -48 0
-12 -22 -39 -51 0
-12 -22 -48 -51 0
-12 -26 -31 -39 0
-12 -26 -31 -48 0
-12 -26 -31 -51 0
-12 -26 -39 -48 0
-12 -26 -39 -51 0
-12 -26 -48 -51 0
-12 -31 -39 -48 0
-12 -31 -39 -51 0
-12 -31 -48 -51 0
-12 -39 -48 -51 0
-18 -22 -26 -31 0
-18 -22 -26 -39 0
-18 -22 -26 -48 0
-18 -22 -26 -51 0
-18 -22 -31 -39 0
-18 -22 -31 -48 0
-18 -22 -31 -51 0
-18 -22 -39 -48 0
-18 -22 -39 -51 0
-18 -22 -48 -51 0
-18 -26 -31 -39 0
-18 -26 -31 -48 0
-18 -26 -31 -51 0
-18 -26 -39 -48 0
-18 -26 -39 -51 0
-18 -26 -48 -51 0
-18 -31 -39 -48 0
-18 -31 -39 -51 0
-18 -31 -48 -51 0
-18 -39 -48 -51 0
-22 -26 -31 -39 0
-22 -26 -31 -48 0
-22 -26 -31 -51 0
-22 -26 -39 -48 0
-22 -26 -39 -51 0
-22 -26 -48 -51 0
-22 -31 -39 -48 0
-22 -31 -39 -51 0
-22 -31 -48 -51 0
-22 -39 -48 -51 0
-26 -31 -39 -48 0
-26 -31 -39 -51 0
-26 -31 -48 -51 0
-26 -39 -48 -51 0
-31 -39 -48 -51 0
-4 -7 -13 -23 0
-4 -7 -13 -27 0
-4 -7 -13 -32 0
-4 -7 -13 -40 0
-4 -7 -13 -43 0
-4 -7 -13 -52 0
-4 -7 -23 -27 0
-4 -7 -23 -32 0
-4 -7 -23 -40 0
-4 -7 -23 -43 0
-4 -7 -23 -52 0
-4 -7 -27 -32 0
-4 -7 -27 -40 0
-4 -7 -27 -43 0
-4 -7 -27 -52 0
-4 -7 -32 -40 0
-4 -7 -32 -43 0
-4 -7 -32 -52 0
-4 -7 -40 -43 0
-4 -7 -40 -52 0
-4 -7 -43 -52 0
-4 -13 -23 -27 0
-4 -13 -23 -32 0
-4 -13 -23 -40 0
-4 -13 -23 -43 0
-4 -13 -23 -52 0
-4 -13 -27 -32 0
-4 -13 -27 -40 0
-4 -13 -27 -43 0
-4 -13 -27 -52 0
-4 -13 -32 -40 0
-4 -13 -32 -43 0
-4 -13 -32 -52 0
-4 -13 -40 -43 0
-4 -13 -40 -52 0
-4 -13 -43 -52 0
-4 -23 -27 -32 0
-4 -23 -27 -40 0
-4 -23 -27 -43 0
-4 -23 -27 -52 0
-4 -23 -32 -40 0
-4 -23 -32 -43 0
-4 -23 -32 -52 0
-4 -23 -40 -43 0
-4 -23 -40 -52 0
-4 -23 -43 -52 0
-4 -27 -32 -40 0
-4 -27 -32 -43 0
-4 -27 -32 -52 0
-4 -27 -40 -43 0
-4 -27 -40 -52 0
-4 -27 -43 -52 0
-4 -32 -40 -43 0
-4 -32 -40 -52 0
-4 -32 -43 -52 0
-4 -40 -43 -52 0
-7 -13 -23 -27 0
-7 -13 -23 -32 0
-7 -13 -23 -40 0
-7 -13 -23 -43 0
-7 -13 -23 -52 0
-7 -13 -27 -32 0
-7 -13 -27 -40 0
-7 -13 -27 -43 0
-7 -13 -27 -52 0
-7 -13 -32 -40 0
-7 -13 -32 -43 0
-7 -13 -32 -52 0
-7 -13 -40 -43 0
-7 -13 -40 -52 0
-7 -13 -43 -52 0
-7 -23 -27 -32 0
-7 -23 -27 -40 0
-7 -23 -27 -43 0
-7 -23 -27 -52 0
-7 -23 -32 -40 0
-7 -23 -32 -43 0
-7 -23 -32 -52 0
-7 -23 -40 -43 0
-7 -23 -40 -52 0
-7 -23 -43 -52 0
-7 -27 -32 -40 0
-7 -27 -32 -43 0
-7 -27 -32 -52 0
-7 -27 -40 -43 0
-7 -27 -40 -52 0
-7 -27 -43 -52 0
-7 -32 -40 -43 0
-7 -32 -40 -52 0
-7 -32 -43 -52 0
-7 -40 -43 -52 0
-13 -23 -27 -32 0
-13 -23 -27 -40 0
-13 -23 -27 -43 0
-13 -23 -27 -52 0
-13 -23 -32 -40 0
-13 -23 -32 -43 0
-13 -23 -32 -52 0
-13 -23 -40 -43 0
-13 -23 -40 -52 0
-13 -23 -43 -52 0
-13 -27 -32 -40 0
-13 -27 -32 -43 0
-13 -27 -32 -52 0
-13 -27 -40 -43 0
-13 -27 -40 -52 0
-13 -27 -43 -52 0
-13 -32 -40 -43 0
-13 -32 -40 -52 0
-13 -32 -43 -52 0
-13 -40 -43 -52 0
-23 -27 -32 -40 0
-23 -27 -32 -43 0
-23 -27 -32 -52 0
-23 -27 -40 -43 0
-23 -27 -40 -52 0
-23 -27 -43 -52 0
-23 -32 -40 -43 0
-23 -32 -40 -52 0
-23 -32 -43 -52 0
-23 -40 -43 -52 0
-27 -32 -40 -43 0
-27 -32 -40 -52 0
-27 -32 -43 -52 0
-27 -40 -43 -52 0
-32 -40 -43 -52 0
-5 -8 -14 -24 0
-5 -8 -14 -28 0
-5 -8 -14 -33 0
-5 -8 -14 -41 0
-5 -8 -14 -44 0
-5 -8 -14 -53 0
-5 -8 -24 -28 0
-5 -8 -24 -33 0
-5 -8 -24 -41 0
-5 -8 -24 -44 0
-5 -8 -24 -53 0
-5 -8 -28 -33 0
-5 -8 -28 -41 0
-5 -8 -28 -44 0
-5 -8 -28 -53 0
-5 -8 -33 -41 0
-5 -8 -33 -44 0
-5 -8 -33 -53 0
-5 -8 -41 -44 0
-5 -8 -41 -53 0
-5 -8 -44 -53 0
-5 -14 -24 -28 0
-5 -14 -24 -33 0
-5 -14 -24 -41 0
-5 -14 -24 -44 0
-5 -14 -24 -53 0
-5 -14 -28 -33 0
-5 -14 -28 -41 0
-5 -14 -28 -44 0
-5 -14 -28 -53 0
-5 -14 -33 -41 0
-5 -14 -33 -44 0
-5 -14 -33 -53 0
-5 -14 -41 -44 0
-5 -14 -41 -53 0
-5 -14 -44 -53 0
-5 -24 -28 -33 0
-5 -24 -28 -41 0
-5 -24 -28 -44 0
-5 -24 -28 -53 0
-5 -24 -33 -41 0
-5 -24 -33 -44 0
-5 -24 -33 -53 0
-5 -24 -41 -44 0
-5 -24 -41 -53 0
-5 -24 -44 -53 0
-5 -28 -33 -41 0
-5 -28 -33 -44 0
-5 -28 -33 -53 0
-5 -28 -41 -44 0
-5 -28 -41 -53 0
-5 -28 -44 -53 0
-5 -33 -41 -44 0
-5 -33 -41 -53 0
-5 -33 -44 -53 0
-5 -41 -44 -53 0
-8 -14 -24 -28 0
-8 -14 -24 -33 0
-8 -14 -24 -41 0
-8 -14 -24 -44 0
-8 -14 -24 -53 0
-8 -14 -28 -33 0
-8 -14 -28 -41 0
-8 -14 -28 -44 0
-8 -14 -28 -53 0
-8 -14 -33 -41 0
-8 -14 -33 -44 0
-8 -14 -33 -53 0
-8 -14 -41 -44 0
-8 -14 -41 -53 0
-8 -14 -44 -53 0
-8 -24 -28 -33 0
-8 -24 -28 -41 0
-8 -24 -28 -44 0
-8 -24 -28 -53 0
-8 -24 -33 -41 0
-8 -24 -33 -44 0
-8 -24 -33 -53 0
-8 -24 -41 -44 0
-8 -24 -41 -53 0
-8 -24 -44 -53 0
-8 -28 -33 -41 0
-8 -28 -33 -44 0
-8 -28 -33 -53 0
-8 -28 -41 -44 0
-8 -28 -41 -53 0
-8 -28 -44 -53 0
-8 -33 -41 -44 0
-8 -33 -41 -53 0
-8 -33 -44 -53 0
-8 -41 -44 -53 0
-14 -24 -28 -33 0
-14 -24 -28 -41 0
-14 -24 -28 -44 0
-14 -24 -28 -53 0
-14 -24 -33 -41 0
-14 -24 -33 -44 0
-14 -24 -33 -53 0
-14 -24 -41 -44 0
-14 -24 -41 -53 0
-14 -24 -44 -53 0
-14 -28 -33 -41 0
-14 -28 -33 -44 0
-14 -28 -33 -53 0
-14 -28 -41 -44 0
-14 -28 -41 -53 0
-14 -28 -44 -53 0
-14 -33 -41 -44 0
-14 -33 -41 -53 0
-14 -33 -44 -53 0
-14 -41 -44 -53 0
-24 -28 -33 -41 0
-24 -28 -33 -44 0
-24 -28 -33 -53 0
-24 -28 -41 -44 0
-24 -28 -41 -53 0
-24 -28 -44 -53 0
-24 -33 -41 -44 0
-24 -33 -41 -53 0
-24 -33 -44 -53 0
-24 -41 -44 -53 0
-28 -33 -41 -44 0
-28 -33 -41 -53 0
-28 -33 -44 -53 0
-28 -41 -44 -53 0
-33 -41 -44 -53 0
-6 -9 -15 -19 0
-6 -9 -15 -29 0
-6 -9 -15 -34 0
-6 -9 -15 -42 0
-6 -9 -15 -45 0
-6 -9 -15 -54 0
-6 -9 -19 -29 0
-6 -9 -19 -34 0
-6 -9 -19 -42 0
-6 -9 -19 -45 0
-6 -9 -19 -54 0
-6 -9 -29 -34 0
-6 -9 -29 -42 0
-6 -9 -29 -45 0
-6 -9 -29 -54 0
-6 -9 -34 -42 0
-6 -9 -34 -45 0
-6 -9 -34 -54 0
-6 -9 -42 -45 0
-6 -9 -42 -54 0
-6 -9 -45 -54 0
-6 -15 -19 -29 0
-6 -15 -19 -34 0
-6 -15 -19 -42 0
-6 -15 -19 -45 0
-6 -15 -19 -54 0
-6 -15 -29 -34 0
-6 -15 -29 -42 0
-6 -15 -29 -45 0
-6 -15 -29 -54 0
-6 -15 -34 -42 0
-6 -15 -34 -45 0
-6 -15 -34 -54 0
-6 -15 -42 -45 0
-6 -15 -42 -54 0
-6 -15 -45 -54 0
-6 -19 -29 -34 0
-6 -19 -29 -42 0
-6 -19 -29 -45 0
-6 -19 -29 -54 0
-6 -19 -34 -42 0
-6 -19 -34 -45 0
-6 -19 -34 -54 0
-6 -19 -42 -45 0
-6 -19 -42 -54 0
-6 -19 -45 -54 0
-6 -29 -34 -42 0
-6 -29 -34 -45 0
-6 -29 -34 -54 0
-6 -29 -42 -45 0
-6 -29 -42 -54 0
-6 -29 -45 -54 0
-6 -34 -42 -45 0
-6 -34 -42 -54 0
-6 -34 -45 -54 0
-6 -42 -45 -54 0
-9 -15 -19 -29 0
-9 -15 -19 -34 0
-9 -15 -19 -42 0
-9 -15 -19 -45 0
-9 -15 -19 -54 0
-9 -15 -29 -34 0
-9 -15 -29 -42 0
-9 -15 -29 -45 0
-9 -15 -29 -54 0
-9 -15 -34 -42 0
-9 -15 -34 -45 0
-9 -15 -34 -54 0
-9 -15 -42 -45 0
-9 -15 -42 -54 0
-9 -15 -45 -54 0
-9 -19 -29 -34 0
-9 -19 -29 -42 0
-9 -19 -29 -45 0
-9 -19 -29 -54 0
-9 -19 -34 -42 0
-9 -19 -34 -45 0
-9 -19 -34 -54 0
-9 -19 -42 -45 0
-9 -19 -42 -54 0
-9 -19 -45 -54 0
-9 -29 -34 -42 0
-9 -29 -34 -45 0
-9 -29 -34 -54 0
-9 -29 -42 -45 0
-9 -29 -42 -54 0
-9 -29 -45 -54 0
-9 -34 -42 -45 0
-9 -34 -42 -54 0
-9 -34 -45 -54 0
-9 -42 -45 -54 0
-15 -19 -29 -34 0
-15 -19 -29 -42 0
-15 -19 -29 -45 0
-15 -19 -29 -54 0
-15 -19 -34 -42 0
-15 -19 -34 -45 0
-15 -19 -34 -54 0
-15 -19 -42 -45 0
-15 -19 -42 -54 0
-15 -19 -45 -54 0
-15 -29 -34 -42 0
-15 -29 -34 -45 0
-15 -29 -34 -54 0
-15 -29 -42 -45 0
-15 -29 -42 -54 0
-15 -29 -45 -54 0
-15 -34 -42 -45 0
-15 -34 -42 -54 0
-15 -34 -45 -54 0
-15 -42 -45 -54 0
-19 -29 -34 -42 0
-19 -29 -34 -45 0
-19 -29 -34 -54 0
-19 -29 -42 -45 0
-19 -29 -42 -54 0
-19 -29 -45 -54 0
-19 -34 -42 -45 0
-19 -34 -42 -54 0
-19 -34 -45 -54 0
-19 -42 -45 -54 0
-29 -34 -42 -45 0
-29 -34 -42 -54 0
-29 -34 -45 -54 0
-29 -42 -45 -54 0
-34 -42 -45 -54 0
-2 -11 -13 -21 0
-2 -11 -13 -27 0
-2 -11 -13 -32 0
-2 -11 -13 -39 0
-2 -11 -13 -46 0
-2 -11 -13 -49 0
-2 -11 -21 -27 0
-2 -11 -21 -32 0
-2 -11 -21 -39 0
-2 -11 -21 -46 0
-2 -11 -21 -49 0
-2 -11 -27 -32 0
-2 -11 -27 -39 0
-2 -11 -27 -46 0
-2 -11 -27 -49 0
-2 -11 -32 -39 0
-2 -11 -32 -46 0
-2 -11 -32 -49 0
-2 -11 -39 -46 0
-2 -11 -39 -49 0
-2 -11 -46 -49 0
-2 -13 -21 -27 0
-2 -13 -21 -32 0
-2 -13 -21 -39 0
-2 -13 -21 -46 0
-2 -13 -21 -49 0
-2 -13 -27 -32 0
-2 -13 -27 -39 0
-2 -13 -27 -46 0
-2 -13 -27 -49 0
-2 -13 -32 -39 0
-2 -13 -32 -46 0
-2 -13 -32 -49 0
-2 -13 -39 -46 0
-2 -13 -39 -49 0
-2 -13 -46 -49 0
-2 -21 -27 -32 0
-2 -21 -27 -39 0
-2 -21 -27 -46 0
-2 -21 -27 -49 0
-2 -21 -32 -39 0
-2 -21 -32 -46 0
-2 -21 -32 -49 0
-2 -21 -39 -46 0
-2 -21 -39 -49 0
-2 -21 -46 -49 0
-2 -27 -32 -39 0
-2 -27 -32 -46 0
-2 -27 -32 -49 0
-2 -27 -39 -46 0
-2 -27 -39 -49 0
-2 -27 -46 -49 0
-2 -32 -39 -46 0
-2 -32 -39 -49 0
-2 -32 -46 -49 0
-2 -39 -46 -49 0
-11 -13 -21 -27 0
-11 -13 -21 -32 0
-11 -13 -21 -39 0
-11 -13 -21 -46 0
-11 -13 -21 -49 0
-11 -13 -27 -32 0
-11 -13 -27 -39 0
-11 -13 -27 -46 0
-11 -13 -27 -49 0
-11 -13 -32 -39 0
-11 -13 -32 -46 0
-11 -13 -32 -49 0
-11 -13 -39 -46 0
-11 -13 -39 -49 0
-11 -13 -46 -49 0
-11 -21 -27 -32 0
-11 -21 -27 -39 0
-11 -21 -27 -46 0
-11 -21 -27 -49 0
-11 -21 -32 -39 0
-11 -21 -32 -46 0
-11 -21 -32 -49 0
-11 -21 -39 -46 0
-11 -21 -39 -49 0
-11 -21 -46 -49 0
-11 -27 -32 -39 0
-11 -27 -32 -46 0
-11 -27 -32 -49 0
-11 -27 -39 -46 0
-11 -27 -39 -49 0
-11 -27 -46 -49 0
-11 -32 -39 -46 0
-11 -32 -39 -49 0
-11 -32 -46 -49 0
-11 -39 -46 -49 0
-13 -21 -27 -32 0
-13 -21 -27 -39 0
-13 -21 -27 -46 0
-13 -21 -27 -49 0
-13 -21 -32 -39 0
-13 -21 -32 -46 0
-13 -21 -32 -49 0
-13 -21 -39 -46 0
-13 -21 -39 -49 0
-13 -21 -46 -49 0
-13 -27 -32 -39 0
-13 -27 -32 -46 0
-13 -27 -32 -49 0
-13 -27 -39 -46 0
-13 -27 -39 -49 0
-13 -27 -46 -49 0
-13 -32 -39 -46 0
-13 -32 -39 -49 0
-13 -32 -46 -49 0
-13 -39 -46 -49 0
-21 -27 -32 -39 0
-21 -27 -32 -46 0
-21 -27 -32 -49 0
-21 -27 -39 -46 0
-21 -27 -39 -49 0
-21 -27 -46 -49 0
-21 -32 -39 -46 0
-21 -32 -39 -49 0
-21 -32 -46 -49 0
-21 -39 -46 -49 0
-27 -32 -39 -46 0
-27 -32 -39 -49 0
-27 -32 -46 -49 0
-27 -39 -46 -49 0
-32 -39 -46 -49 0
-5 -8 -16 -22 0
-5 -8 -16 -27 0
-5 -8 -16 -31 0
-5 -8 -16 -42 0
-5 -8 -16 -47 0
-5 -8 -16 -50 0
-5 -8 -22 -27 0
-5 -8 -22 -31 0
-5 -8 -22 -42 0
-5 -8 -22 -47 0
-5 -8 -22 -50 0
-5 -8 -27 -31 0
-5 -8 -27 -42 0
-5 -8 -27 -47 0
-5 -8 -27 -50 0
-5 -8 -31 -42 0
-5 -8 -31 -47 0
-5 -8 -31 -50 0
-5 -8 -42 -47 0
-5 -8 -42 -50 0
-5 -8 -47 -50 0
-5 -16 -22 -27 0
-5 -16 -22 -31 0
-5 -16 -22 -42 0
-5 -16 -22 -47 0
-5 -16 -22 -50 0
-5 -16 -27 -31 0
-5 -16 -27 -42 0
-5 -16 -27 -47 0
-5 -16 -27 -50 0
-5 -16 -31 -42 0
-5 -16 -31 -47 0
-5 -16 -31 -50 0
-5 -16 -42 -47 0
-5 -16 -42 -50 0
-5 -16 -47 -50 0
-5 -22 -27 -31 0
-5 -22 -27 -42 0
-5 -22 -27 -47 0
-5 -22 -27 -50 0
-5 -22 -31 -42 0
-5 -22 -31 -47 0
-5 -22 -31 -50 0
-5 -22 -42 -47 0
-5 -22 -42 -50 0
-5 -22 -47 -50 0
-5 -27 -31 -42 0
-5 -27 -31 -47 0
-5 -27 -31 -50 0
-5 -27 -42 -47 0
-5 -27 -42 -50 0
-5 -27 -47 -50 0
-5 -31 -42 -47 0
-5 -31 -42 -50 0
-5 -31 -47 -50 0
-5 -42 -47 -50 0
-8 -16 -22 -27 0
-8 -16 -22 -31 0
-8 -16 -22 -42 0
-8 -16 -22 -47 0
-8 -16 -22 -50 0
-8 -16 -27 -31 0
-8 -16 -27 -42 0
-8 -16 -27 -47 0
-8 -16 -27 -50 0
-8 -16 -31 -42 0
-8 -16 -31 -47 0
-8 -16 -31 -50 0
-8 -16 -42 -47 0
-8 -16 -42 -50 0
-8 -16 -47 -50 0
-8 -22 -27 -31 0
-8 -22 -27 -42 0
-8 -22 -27 -47 0
-8 -22 -27 -50 0
-8 -22 -31 -42 0
-8 -22 -31 -47 0
-8 -22 -31 -50 0
-8 -22 -42 -47 0
-8 -22 -42 -50 0
-8 -22 -47 -50 0
-8 -27 -31 -42 0
-8 -27 -31 -47 0
-8 -27 -31 -50 0
-8 -27 -42 -47 0
-8 -27 -42 -50 0
-8 -27 -47 -50 0
-8 -31 -42 -47 0
-8 -31 -42 -50 0
-8 -31 -47 -50 0
-8 -42 -47 -50 0
-16 -22 -27 -31 0
-16 -22 -27 -42 0
-16 -22 -27 -47 0
-16 -22 -27 -50 0
-16 -22 -31 -42 0
-16 -22 -31 -47 0
-16 -22 -31 -50 0
-16 -22 -42 -47 0
-16 -22 -42 -50 0
-16 -22 -47 -50 0
-16 -27 -31 -42 0
-16 -27 -31 -47 0
-16 -27 -31 -50 0
-16 -27 -42 -47 0
-16 -27 -42 -50 0
-16 -27 -47 -50 0
-16 -31 -42 -47 0
-16 -31 -42 -50 0
-16 -31 -47 -50 0
-16 -42 -47 -50 0
-22 -27 -31 -42 0
-22 -27 -31 -47 0
-22 -27 -31 -50 0
-22 -27 -42 -47 0
-22 -27 -42 -50 0
-22 -27 -47 -50 0
-22 -31 -42 -47 0
-22 -31 -42 -50 0
-22 -31 -47 -50 0
-22 -42 -47 -50 0
-27 -31 -42 -47 0
-27 -31 -42 -50 0
-27 -31 -47 -50 0
-27 -42 -47 -50 0
-31 -42 -47 -50 0
-6 -9 -17 -19 0
-6 -9 -17 -30 0
-6 -9 -17 -33 0
-6 -9 -17 -37 0
-6 -9 -17 -47 0
-6 -9 -17 -50 0
-6 -9 -19 -30 0
-6 -9 -19 -33 0
-6 -9 -19 -37 0
-6 -9 -19 -47 0
-6 -9 -19 -50 0
-6 -9 -30 -33 0
-6 -9 -30 -37 0
-6 -9 -30 -47 0
-6 -9 -30 -50 0
-6 -9 -33 -37 0
-6 -9 -33 -47 0
-6 -9 -33 -50 0
-6 -9 -37 -47 0
-6 -9 -37 -50 0
-6 -9 -47 -50 0
-6 -17 -19 -30 0
-6 -17 -19 -33 0
-6 -17 -19 -37 0
-6 -17 -19 -47 0
-6 -17 -19 -50 0
-6 -17 -30 -33 0
-6 -17 -30 -37 0
-6 -17 -30 -47 0
-6 -17 -30 -50 0
-6 -17 -33 -37 0
-6 -17 -33 -47 0
-6 -17 -33 -50 0
-6 -17 -37 -47 0
-6 -17 -37 -50 0
-6 -17 -47 -50 0
-6 -19 -30 -33 0
-6 -19 -30 -37 0
-6 -19 -30 -47 0
-6 -19 -30 -50 0
-6 -19 -33 -37 0
-6 -19 -33 -47 0
-6 -19 -33 -50 0
-6 -19 -37 -47 0
-6 -19 -37 -50 0
-6 -19 -47 -50 0
-6 -30 -33 -37 0
-6 -30 -33 -47 0
-6 -30 -33 -50 0
-6 -30 -37 -47 0
-6 -30 -37 -50 0
-6 -30 -47 -50 0
-6 -33 -37 -47 0
-6 -33 -37 -50 0
-6 -33 -47 -50 0
-6 -37 -47 -50 0
-9 -17 -19 -30 0
-9 -17 -19 -33 0
-9 -17 -19 -37 0
-9 -17 -19 -47 0
-9 -17 -19 -50 0
-9 -17 -30 -33 0
-9 -17 -30 -37 0
-9 -17 -30 -47 0
-9 -17 -30 -50 0
-9 -17 -33 -37 0
-9 -17 -33 -47 0
-9 -17 -33 -50 0
-9 -17 -37 -47 0
-9 -17 -37 -50 0
-9 -17 -47 -50 0
-9 -19 -30 -33 0
-9 -19 -30 -37 0
-9 -19 -30 -47 0
-9 -19 -30 -50 0
-9 -19 -33 -37 0
-9 -19 -33 -47 0
-9 -19 -33 -50 0
-9 -19 -37 -47 0
-9 -19 -37 -50 0
-9 -19 -47 -50 0
-9 -30 -33 -37 0
-9 -30 -33 -47 0
-9 -30 -33 -50 0
-9 -30 -37 -47 0
-9 -30 -37 -50 0
-9 -30 -47 -50 0
-9 -33 -37 -47 0
-9 -33 -37 -50 0
-9 -33 -47 -50 0
-9 -37 -47 -50 0
-17 -19 -30 -33 0
-17 -19 -30 -37 0
-17 -19 -30 -47 0
-17 -19 -30 -50 0
-17 -19 -33 -37 0
-17 -19 -33 -47 0
-17 -19 -33 -50 0
-17 -19 -37 -47 0
-17 -19 -37 -50 0
-17 -19 -47 -50 0
-17 -30 -33 -37 0
-17 -30 -33 -47 0
-17 -30 -33 -50 0
-17 -30 -37 -47 0
-17 -30 -37 -50 0
-17 -30 -47 -50 0
-17 -33 -37 -47 0
-17 -33 -37 -50 0
-17 -33 -47 -50 0
-17 -37 -47 -50 0
-19 -30 -33 -37 0
-19 -30 -33 -47 0
-19 -30 -33 -50 0
-19 -30 -37 -47 0
-19 -30 -37 -50 0
-19 -30 -47 -50 0
-19 -33 -37 -47 0
-19 -33 -37 -50 0
-19 -33 -47 -50 0
-19 -37 -47 -50 0
-30 -33 -37 -47 0
-30 -33 -37 -50 0
-30 -33 -47 -50 0
-30 -37 -47 -50 0
-33 -37 -47 -50 0
-3 -11 -15 -19 0
-3 -11 -15 -25 0
-3 -11 -15 -34 0
-3 -11 -15 -40 0
-3 -11 -15 -47 0
-3 -11 -15 -50 0
-3 -11 -19 -25 0
-3 -11 -19 -34 0
-3 -11 -19 -40 0
-3 -11 -19 -47 0
-3 -11 -19 -50 0
-3 -11 -25 -34 0
-3 -11 -25 -40 0
-3 -11 -25 -47 0
-3 -11 -25 -50 0
-3 -11 -34 -40 0
-3 -11 -34 -47 0
-3 -11 -34 -50 0
-3 -11 -40 -47 0
-3 -11 -40 -50 0
-3 -11 -47 -50 0
-3 -15 -19 -25 0
-3 -15 -19 -34 0
-3 -15 -19 -40 0
-3 -15 -19 -47 0
-3 -15 -19 -50 0
-3 -15 -25 -34 0
-3 -15 -25 -40 0
-3 -15 -25 -47 0
-3 -15 -25 -50 0
-3 -15 -34 -40 0
-3 -15 -34 -47 0
-3 -15 -34 -50 0
-3 -15 -40 -47 0
-3 -15 -40 -50 0
-3 -15 -47 -50 0
-3 -19 -25 -34 0
-3 -19 -25 -40 0
-3 -19 -25 -47 0
-3 -19 -25 -50 0
-3 -19 -34 -40 0
-3 -19 -34 -47 0
-3 -19 -34 -50 0
-3 -19 -40 -47 0
-3 -19 -40 -50 0
-3 -19 -47 -50 0
-3 -25 -34 -40 0
-3 -25 -34 -47 0
-3 -25 -34 -50 0
-3 -25 -40 -47 0
-3 -25 -40 -50 0
-3 -25 -47 -50 0
-3 -34 -40 -47 0
-3 -34 -40 -50 0
-3 -34 -47 -50 0
-3 -40 -47 -50 0
-11 -15 -19 -25 0
-11 -15 -19 -34 0
-11 -15 -19 -40 0
-11 -15 -19 -47 0
-11 -15 -19 -50 0
-11 -15 -25 -34 0
-11 -15 -25 -40 0
-11 -15 -25 -47 0
-11 -15 -25 -50 0
-11 -15 -34 -40 0
-11 -15 -34 -47 0
-11 -15 -34 -50 0
-11 -15 -40 -47 0
-11 -15 -40 -50 0
-11 -15 -47 -50 0
-11 -19 -25 -34 0
-11 -19 -25 -40 0
-11 -19 -25 -47 0
-11 -19 -25 -50 0
-11 -19 -34 -40 0
-11 -19 -34 -47 0
-11 -19 -34 -50 0
-11 -19 -40 -47 0
-11 -19 -40 -50 0
-11 -19 -47 -50 0
-11 -25 -34 -40 0
-11 -25 -34 -47 0
-11 -25 -34 -50 0
-11 -25 -40 -47 0
-11 -25 -40 -50 0
-11 -25 -47 -50 0
-11 -34 -40 -47 0
-11 -34 -40 -50 0
-11 -34 -47 -50 0
-11 -40 -47 -50 0
-15 -19 -25 -34 0
-15 -19 -25 -40 0
-15 -19 -25 -47 0
-15 -19 -25 -50 0
-15 -19 -34 -40 0
-15 -19 -34 -47 0
-15 -19 -34 -50 0
-15 -19 -40 -47 0
-15 -19 -40 -50 0
-15 -19 -47 -50 0
-15 -25 -34 -40 0
-15 -25 -34 -47 0
-15 -25 -34 -50 0
-15 -25 -40 -47 0
-15 -25 -40 -50 0
-15 -25 -47 -50 0
-15 -34 -40 -47 0
-15 -34 -40 -50 0
-15 -34 -47 -50 0
-15 -40 -47 -50 0
-19 -25 -34 -40 0
-19 -25 -34 -47 0
-19 -25 -34 -50 0
-19 -25 -40 -47 0
-19 -25 -40 -50 0
-19 -25 -47 -50 0
-19 -34 -40 -47 0
-19 -34 -40 -50 0
-19 -34 -47 -50 0
-19 -40 -47 -50 0
-25 -34 -40 -47 0
-25 -34 -40 -50 0
-25 -34 -47 -50 0
-25 -40 -47 -50 0
-34 -40 -47 -50 0
-2 -10 -18 -20 0
-2 -10 -18 -25 0
-2 -10 -18 -33 0
-2 -10 -18 -38 0
-2 -10 -18 -45 0
-2 -10 -18 -54 0
-2 -10 -20 -25 0
-2 -10 -20 -33 0
-2 -10 -20 -38 0
-2 -10 -20 -45 0
-2 -10 -20 -54 0
-2 -10 -25 -33 0
-2 -10 -25 -38 0
-2 -10 -25 -45 0
-2 -10 -25 -54 0
-2 -10 -33 -38 0
-2 -10 -33 -45 0
-2 -10 -33 -54 0
-2 -10 -38 -45 0
-2 -10 -38 -54 0
-2 -10 -45 -54 0
-2 -18 -20 -25 0
-2 -18 -20 -33 0
-2 -18 -20 -38 0
-2 -18 -20 -45 0
-2 -18 -20 -54 0
-2 -18 -25 -33 0
-2 -18 -25 -38 0
-2 -18 -25 -45 0
-2 -18 -25 -54 0
-2 -18 -33 -38 0
-2 -18 -33 -45 0
-2 -18 -33 -54 0
-2 -18 -38 -45 0
-2 -18 -38 -54 0
-2 -18 -45 -54 0
-2 -20 -25 -33 0
-2 -20 -25 -38 0
-2 -20 -25 -45 0
-2 -20 -25 -54 0
-2 -20 -33 -38 0
-2 -20 -33 -45 0
-2 -20 -33 -54 0
-2 -20 -38 -45 0
-2 -20 -38 -54 0
-2 -20 -45 -54 0
-2 -25 -33 -38 0
-2 -25 -33 -45 0
-2 -25 -33 -54 0
-2 -25 -38 -45 0
-2 -25 -38 -54 0
-2 -25 -45 -54 0
-2 -33 -38 -45 0
-2 -33 -38 -54 0
-2 -33 -45 -54 0
-2 -38 -45 -54 0
-10 -18 -20 -25 0
-10 -18 -20 -33 0
-10 -18 -20 -38 0
-10 -18 -20 -45 0
-10 -18 -20 -54 0
-10 -18 -25 -33 0
-10 -18 -25 -38 0
-10 -18 -25 -45 0
-10 -18 -25 -54 0
-10 -18 -33 -38 0
-10 -18 -33 -45 0
-10 -18 -33 -54 0
-10 -18 -38 -45 0
-10 -18 -38 -54 0
-10 -18 -45 -54 0
-10 -20 -25 -33 0
-10 -20 -25 -38 0
-10 -20 -25 -45 0
-10 -20 -25 -54 0
-10 -20 -33 -38 0
-10 -20 -33 -45 0
-10 -20 -33 -54 0
-10 -20 -38 -45 0
-10 -20 -38 -54 0
-10 -20 -45 -54 0
-10 -25 -33 -38 0
-10 -25 -33 -45 0
-10 -25 -33 -54 0
-10 -25 -38 -45 0
-10 -25 -38 -54 0
-10 -25 -45 -54 0
-10 -33 -38 -45 0
-10 -33 -38 -54 0
-10 -33 -45 -54 0
-10 -38 -45 -54 0
-18 -20 -25 -33 0
-18 -20 -25 -38 0
-18 -20 -25 -45 0
-18 -20 -25 -54 0
-18 -20 -33 -38 0
-18 -20 -33 -45 0
-18 -20 -33 -54 0
-18 -20 -38 -45 0
-18 -20 -38 -54 0
-18 -20 -45 -54 0
-18 -25 -33 -38 0
-18 -25 -33 -45 0
-18 -25 -33 -54 0
-18 -25 -38 -45 0
-18 -25 -38 -54 0
-18 -25 -45 -54 0
-18 -33 -38 -45 0
-18 -33 -38 -54 0
-18 -33 -45 -54 0
-18 -38 -45 -54 0
-20 -25 -33 -38 0
-20 -25 -33 -45 0
-20 -25 -33 -54 0
-20 -25 -38 -45 0
-20 -25 -38 -54 0
-20 -25 -45 -54 0
-20 -33 -38 -45 0
-20 -33 -38 -54 0
-20 -33 -45 -54 0
-20 -38 -45 -54 0
-25 -33 -38 -45 0
-25 -33 -38 -54 0
-25 -33 -45 -54 0
-25 -38 -45 -54 0
-33 -38 -45 -54 0
