p cnf 42 8057
1 2 3 4 5 6 0
-1 -2 0
-1 -3 0
-1 -4 0
-1 -5 0
-1 -6 0
-2 -3 0
-2 -4 0
-2 -5 0
-2 -6 0
-3 -4 0
-3 -5 0
-3 -6 0
-4 -5 0
-4 -6 0
-5 -6 0
7 8 9 10 11 12 0
-7 -8 0
-7 -9 0
-7 -10 0
-7 -11 0
-7 -12 0
-8 -9 0
-8 -10 0
-8 -11 0
-8 -12 0
-9 -10 0
-9 -11 0
-9 -12 0
-10 -11 0
-10 -12 0
-11 -12 0
13 14 15 16 17 18 0
-13 -14 0
-13 -15 0
-13 -16 0
-13 -17 0
-13 -18 0
-14 -15 0
-14 -16 0
-14 -17 0
-14 -18 0
-15 -16 0
-15 -17 0
-15 -18 0
-16 -17 0
-16 -18 0
-17 -18 0
19 20 21 22 23 24 0
-19 -20 0
-19 -21 0
-19 -22 0
-19 -23 0
-19 -24 0
-20 -21 0
-20 -22 0
-20 -23 0
-20 -24 0
-21 -22 0
-21 -23 0
-21 -24 0
-22 -23 0
-22 -24 0
-23 -24 0
25 26 27 28 29 30 0
-25 -26 0
-25 -27 0
-25 -28 0
-25 -29 0
-25 -30 0
-26 -27 0
-26 -28 0
-26 -29 0
-26 -30 0
-27 -28 0
-27 -29 0
-27 -30 0
-28 -29 0
-28 -30 0
-29 -30 0
31 32 33 34 35 36 0
-31 -32 0
-31 -33 0
-31 -34 0
-31 -35 0
-31 -36 0
-32 -33 0
-32 -34 0
-32 -35 0
-32 -36 0
-33 -34 0
-33 -35 0
-33 -36 0
-34 -35 0
-34 -36 0
-35 -36 0
37 38 39 40 41 42 0
-37 -38 0
-37 -39 0
-37 -40 0
-37 -41 0
-37 -42 0
-38 -39 0
-38 -40 0
-38 -41 0
-38 -42 0
-39 -40 0
-39 -41 0
-39 -42 0
-40 -41 0
-40 -42 0
-41 -42 0
-1 -9 -18 -23 0
-1 -9 -18 -27 0
-1 -9 -18 -34 0
-1 -9 -18 -40 0
-1 -9 -23 -27 0
-1 -9 -23 -34 0
-1 -9 -23 -40 0
-1 -9 -27 -34 0
-1 -9 -27 -40 0
-1 -9 -34 -40 0
-1 -18 -23 -27 0
-1 -18 -23 -34 0
-1 -18 -23 -40 0
-1 -18 -27 -34 0
-1 -18 -27 -40 0
-1 -18 -34 -40 0
-1 -23 -27 -34 0
-1 -23 -27 -40 0
-1 -23 -34 -40 0
-1 -27 -34 -40 0
-9 -18 -23 -27 0
-9 -18 -23 -34 0
-9 -18 -23 -40 0
-9 -18 -27 -34 0
-9 -18 -27 -40 0
-9 -18 -34 -40 0
-9 -23 -27 -34 0
-9 -23 -27 -40 0
-9 -23 -34 -40 0
-9 -27 -34 -40 0
-18 -23 -27 -34 0
-18 -23 -27 -40 0
-18 -23 -34 -40 0
-18 -27 -34 -40 0
-23 -27 -34 -40 0
-2 -10 -13 -24 0
-2 -10 -13 -28 0
-2 -10 -13 -35 0
-2 -10 -13 -41 0
-2 -10 -24 -28 0
-2 -10 -24 -35 0
-2 -10 -24 -41 0
-2 -10 -28 -35 0
-2 -10 -28 -41 0
-2 -10 -35 -41 0
-2 -13 -24 -28 0
-2 -13 -24 -35 0
-2 -13 -24 -41 0
-2 -13 -28 -35 0
-2 -13 -28 -41 0
-2 -13 -35 -41 0
-2 -24 -28 -35 0
-2 -24 -28 -41 0
-2 -24 -35 -41 0
-2 -28 -35 -41 0
-10 -13 -24 -28 0
-10 -13 -24 -35 0
-10 -13 -24 -41 0
-10 -13 -28 -35 0
-10 -13 -28 -41 0
-10 -13 -35 -41 0
-10 -24 -28 -35 0
-10 -24 -28 -41 0
-10 -24 -35 -41 0
-10 -28 -35 -41 0
-13 -24 -28 -35 0
-13 -24 -28 -41 0
-13 -24 -35 -41 0
-13 -28 -35 -41 0
-24 -28 -35 -41 0
-3 -11 -14 -19 0
-3 -11 -14 -29 0
-3 -11 -14 -36 0
-3 -11 -14 -42 0
-3 -11 -19 -29 0
-3 -11 -19 -36 0
-3 -11 -19 -42 0
-3 -11 -29 -36 0
-3 -11 -29 -42 0
-3 -11 -36 -42 0
-3 -14 -19 -29 0
-3 -14 -19 -36 0
-3 -14 -19 -42 0
-3 -14 -29 -36 0
-3 -14 -29 -42 0
-3 -14 -36 -42 0
-3 -19 -29 -36 0
-3 -19 -29 -42 0
-3 -19 -36 -42 0
-3 -29 -36 -42 0
-11 -14 -19 -29 0
-11 -14 -19 -36 0
-11 -14 -19 -42 0
-11 -14 -29 -36 0
-11 -14 -29 -42 0
-11 -14 -36 -42 0
-11 -19 -29 -36 0
-11 -19 -29 -42 0
-11 -19 -36 -42 0
-11 -29 -36 -42 0
-14 -19 -29 -36 0
-14 -19 -29 -42 0
-14 -19 -36 -42 0
-14 -29 -36 -42 0
-19 -29 -36 -42 0
-4 -12 -15 -20 0
-4 -12 -15 -30 0
-4 -12 -15 -31 0
-4 -12 -15 -37 0
-4 -12 -20 -30 0
-4 -12 -20 -31 0
-4 -12 -20 -37 0
-4 -12 -30 -31 0
-4 -12 -30 -37 0
-4 -12 -31 -37 0
-4 -15 -20 -30 0
-4 -15 -20 -31 0
-4 -15 -20 -37 0
-4 -15 -30 -31 0
-4 -15 -30 -37 0
-4 -15 -31 -37 0
-4 -20 -30 -31 0
-4 -20 -30 -37 0
-4 -20 -31 -37 0
-4 -30 -31 -37 0
-12 -15 -20 -30 0
-12 -15 -20 -31 0
-12 -15 -20 -37 0
-12 -15 -30 -31 0
-12 -15 -30 -37 0
-12 -15 -31 -37 0
-12 -20 -30 -31 0
-12 -20 -30 -37 0
-12 -20 -31 -37 0
-12 -30 -31 -37 0
-15 -20 -30 -31 0
-15 -20 -30 -37 0
-15 -20 -31 -37 0
-15 -30 -31 -37 0
-20 -30 -31 -37 0
-5 -7 -16 -21 0
-5 -7 -16 -25 0
-5 -7 -16 -32 0
-5 -7 -16 -38 0
-5 -7 -21 -25 0
-5 -7 -21 -32 0
-5 -7 -21 -38 0
-5 -7 -25 -32 0
-5 -7 -25 -38 0
-5 -7 -32 -38 0
-5 -16 -21 -25 0
-5 -16 -21 -32 0
-5 -16 -21 -38 0
-5 -16 -25 -32 0
-5 -16 -25 -38 0
-5 -16 -32 -38 0
-5 -21 -25 -32 0
-5 -21 -25 -38 0
-5 -21 -32 -38 0
-5 -25 -32 -38 0
-7 -16 -21 -25 0
-7 -16 -21 -32 0
-7 -16 -21 -38 0
-7 -16 -25 -32 0
-7 -16 -25 -38 0
-7 -16 -32 -38 0
-7 -21 -25 -32 0
-7 -21 -25 -38 0
-7 -21 -32 -38 0
-7 -25 -32 -38 0
-16 -21 -25 -32 0
-16 -21 -25 -38 0
-16 -21 -32 -38 0
-16 -25 -32 -38 0
-21 -25 -32 -38 0
-6 -8 -17 -22 0
-6 -8 -17 -26 0
-6 -8 -17 -33 0
-6 -8 -17 -39 0
-6 -8 -22 -26 0
-6 -8 -22 -33 0
-6 -8 -22 -39 0
-6 -8 -26 -33 0
-6 -8 -26 -39 0
-6 -8 -33 -39 0
-6 -17 -22 -26 0
-6 -17 -22 -33 0
-6 -17 -22 -39 0
-6 -17 -26 -33 0
-6 -17 -26 -39 0
-6 -17 -33 -39 0
-6 -22 -26 -33 0
-6 -22 -26 -39 0
-6 -22 -33 -39 0
-6 -26 -33 -39 0
-8 -17 -22 -26 0
-8 -17 -22 -33 0
-8 -17 -22 -39 0
-8 -17 -26 -33 0
-8 -17 -26 -39 0
-8 -17 -33 -39 0
-8 -22 -26 -33 0
-8 -22 -26 -39 0
-8 -22 -33 -39 0
-8 -26 -33 -39 0
-17 -22 -26 -33 0
-17 -22 -26 -39 0
-17 -22 -33 -39 0
-17 -26 -33 -39 0
-22 -26 -33 -39 0
-1 -10 -17 -22 0
-1 -10 -17 -30 0
-1 -10 -17 -35 0
-1 -10 -17 -42 0
-1 -10 -22 -30 0
-1 -10 -22 -35 0
-1 -10 -22 -42 0
-1 -10 -30 -35 0
-1 -10 -30 -42 0
-1 -10 -35 -42 0
-1 -17 -22 -30 0
-1 -17 -22 -35 0
-1 -17 -22 -42 0
-1 -17 -30 -35 0
-1 -17 -30 -42 0
-1 -17 -35 -42 0
-1 -22 -30 -35 0
-1 -22 -30 -42 0
-1 -22 -35 -42 0
-1 -30 -35 -42 0
-10 -17 -22 -30 0
-10 -17 -22 -35 0
-10 -17 -22 -42 0
-10 -17 -30 -35 0
-10 -17 -30 -42 0
-10 -17 -35 -42 0
-10 -22 -30 -35 0
-10 -22 -30 -42 0
-10 -22 -35 -42 0
-10 -30 -35 -42 0
-17 -22 -30 -35 0
-17 -22 -30 -42 0
-17 -22 -35 -42 0
-17 -30 -35 -42 0
-22 -30 -35 -42 0
-2 -11 -18 -23 0
-2 -11 -18 -25 0
-2 -11 -18 -36 0
-2 -11 -18 -37 0
-2 -11 -23 -25 0
-2 -11 -23 -36 0
-2 -11 -23 -37 0
-2 -11 -25 -36 0
-2 -11 -25 -37 0
-2 -11 -36 -37 0
-2 -18 -23 -25 0
-2 -18 -23 -36 0
-2 -18 -23 -37 0
-2 -18 -25 -36 0
-2 -18 -25 -37 0
-2 -18 -36 -37 0
-2 -23 -25 -36 0
-2 -23 -25 -37 0
-2 -23 -36 -37 0
-2 -25 -36 -37 0
-11 -18 -23 -25 0
-11 -18 -23 -36 0
-11 -18 -23 -37 0
-11 -18 -25 -36 0
-11 -18 -25 -37 0
-11 -18 -36 -37 0
-11 -23 -25 -36 0
-11 -23 -25 -37 0
-11 -23 -36 -37 0
-11 -25 -36 -37 0
-18 -23 -25 -36 0
-18 -23 -25 -37 0
-18 -23 -36 -37 0
-18 -25 -36 -37 0
-23 -25 -36 -37 0
-3 -12 -13 -24 0
-3 -12 -13 -26 0
-3 -12 -13 -31 0
-3 -12 -13 -38 0
-3 -12 -24 -26 0
-3 -12 -24 -31 0
-3 -12 -24 -38 0
-3 -12 -26 -31 0
-3 -12 -26 -38 0
-3 -12 -31 -38 0
-3 -13 -24 -26 0
-3 -13 -24 -31 0
-3 -13 -24 -38 0
-3 -13 -26 -31 0
-3 -13 -26 -38 0
-3 -13 -31 -38 0
-3 -24 -26 -31 0
-3 -24 -26 -38 0
-3 -24 -31 -38 0
-3 -26 -31 -38 0
-12 -13 -24 -26 0
-12 -13 -24 -31 0
-12 -13 -24 -38 0
-12 -13 -26 -31 0
-12 -13 -26 -38 0
-12 -13 -31 -38 0
-12 -24 -26 -31 0
-12 -24 -26 -38 0
-12 -24 -31 -38 0
-12 -26 -31 -38 0
-13 -24 -26 -31 0
-13 -24 -26 -38 0
-13 -24 -31 -38 0
-13 -26 -31 -38 0
-24 -26 -31 -38 0
-4 -7 -14 -19 0
-4 -7 -14 -27 0
-4 -7 -14 -32 0
-4 -7 -14 -39 0
-4 -7 -19 -27 0
-4 -7 -19 -32 0
-4 -7 -19 -39 0
-4 -7 -27 -32 0
-4 -7 -27 -39 0
-4 -7 -32 -39 0
-4 -14 -19 -27 0
-4 -14 -19 -32 0
-4 -14 -19 -39 0
-4 -14 -27 -32 0
-4 -14 -27 -39 0
-4 -14 -32 -39 0
-4 -19 -27 -32 0
-4 -19 -27 -39 0
-4 -19 -32 -39 0
-4 -27 -32 -39 0
-7 -14 -19 -27 0
-7 -14 -19 -32 0
-7 -14 -19 -39 0
-7 -14 -27 -32 0
-7 -14 -27 -39 0
-7 -14 -32 -39 0
-7 -19 -27 -32 0
-7 -19 -27 -39 0
-7 -19 -32 -39 0
-7 -27 -32 -39 0
-14 -19 -27 -32 0
-14 -19 -27 -39 0
-14 -19 -32 -39 0
-14 -27 -32 -39 0
-19 -27 -32 -39 0
-5 -8 -15 -20 0
-5 -8 -15 -28 0
-5 -8 -15 -33 0
-5 -8 -15 -40 0
-5 -8 -20 -28 0
-5 -8 -20 -33 0
-5 -8 -20 -40 0
-5 -8 -28 -33 0
-5 -8 -28 -40 0
-5 -8 -33 -40 0
-5 -15 -20 -28 0
-5 -15 -20 -33 0
-5 -15 -20 -40 0
-5 -15 -28 -33 0
-5 -15 -28 -40 0
-5 -15 -33 -40 0
-5 -20 -28 -33 0
-5 -20 -28 -40 0
-5 -20 -33 -40 0
-5 -28 -33 -40 0
-8 -15 -20 -28 0
-8 -15 -20 -33 0
-8 -15 -20 -40 0
-8 -15 -28 -33 0
-8 -15 -28 -40 0
-8 -15 -33 -40 0
-8 -20 -28 -33 0
-8 -20 -28 -40 0
-8 -20 -33 -40 0
-8 -28 -33 -40 0
-15 -20 -28 -33 0
-15 -20 -28 -40 0
-15 -20 -33 -40 0
-15 -28 -33 -40 0
-20 -28 -33 -40 0
-6 -9 -16 -21 0
-6 -9 -16 -29 0
-6 -9 -16 -34 0
-6 -9 -16 -41 0
-6 -9 -21 -29 0
-6 -9 -21 -34 0
-6 -9 -21 -41 0
-6 -9 -29 -34 0
-6 -9 -29 -41 0
-6 -9 -34 -41 0
-6 -16 -21 -29 0
-6 -16 -21 -34 0
-6 -16 -21 -41 0
-6 -16 -29 -34 0
-6 -16 -29 -41 0
-6 -16 -34 -41 0
-6 -21 -29 -34 0
-6 -21 -29 -41 0
-6 -21 -34 -41 0
-6 -29 -34 -41 0
-9 -16 -21 -29 0
-9 -16 -21 -34 0
-9 -16 -21 -41 0
-9 -16 -29 -34 0
-9 -16 -29 -41 0
-9 -16 -34 -41 0
-9 -21 -29 -34 0
-9 -21 -29 -41 0
-9 -21 -34 -41 0
-9 -29 -34 -41 0
-16 -21 -29 -34 0
-16 -21 -29 -41 0
-16 -21 -34 -41 0
-16 -29 -34 -41 0
-21 -29 -34 -41 0
-1 -11 -16 -20 0
-1 -11 -16 -27 0
-1 -11 -16 -33 0
-1 -11 -16 -37 0
-1 -11 -20 -27 0
-1 -11 -20 -33 0
-1 -11 -20 -37 0
-1 -11 -27 -33 0
-1 -11 -27 -37 0
-1 -11 -33 -37 0
-1 -16 -20 -27 0
-1 -16 -20 -33 0
-1 -16 -20 -37 0
-1 -16 -27 -33 0
-1 -16 -27 -37 0
-1 -16 -33 -37 0
-1 -20 -27 -33 0
-1 -20 -27 -37 0
-1 -20 -33 -37 0
-1 -27 -33 -37 0
-11 -16 -20 -27 0
-11 -16 -20 -33 0
-11 -16 -20 -37 0
-11 -16 -27 -33 0
-11 -16 -27 -37 0
-11 -16 -33 -37 0
-11 -20 -27 -33 0
-11 -20 -27 -37 0
-11 -20 -33 -37 0
-11 -27 -33 -37 0
-16 -20 -27 -33 0
-16 -20 -27 -37 0
-16 -20 -33 -37 0
-16 -27 -33 -37 0
-20 -27 -33 -37 0
-2 -12 -17 -21 0
-2 -12 -17 -28 0
-2 -12 -17 -34 0
-2 -12 -17 -42 0
-2 -12 -21 -28 0
-2 -12 -21 -34 0
-2 -12 -21 -42 0
-2 -12 -28 -34 0
-2 -12 -28 -42 0
-2 -12 -34 -42 0
-2 -17 -21 -28 0
-2 -17 -21 -34 0
-2 -17 -21 -42 0
-2 -17 -28 -34 0
-2 -17 -28 -42 0
-2 -17 -34 -42 0
-2 -21 -28 -34 0
-2 -21 -28 -42 0
-2 -21 -34 -42 0
-2 -28 -34 -42 0
-12 -17 -21 -28 0
-12 -17 -21 -34 0
-12 -17 -21 -42 0
-12 -17 -28 -34 0
-12 -17 -28 -42 0
-12 -17 -34 -42 0
-12 -21 -28 -34 0
-12 -21 -28 -42 0
-12 -21 -34 -42 0
-12 -28 -34 -42 0
-17 -21 -28 -34 0
-17 -21 -28 -42 0
-17 -21 -34 -42 0
-17 -28 -34 -42 0
-21 -28 -34 -42 0
-3 -7 -18 -22 0
-3 -7 -18 -29 0
-3 -7 -18 -35 0
-3 -7 -18 -39 0
-3 -7 -22 -29 0
-3 -7 -22 -35 0
-3 -7 -22 -39 0
-3 -7 -29 -35 0
-3 -7 -29 -39 0
-3 -7 -35 -39 0
-3 -18 -22 -29 0
-3 -18 -22 -35 0
-3 -18 -22 -39 0
-3 -18 -29 -35 0
-3 -18 -29 -39 0
-3 -18 -35 -39 0
-3 -22 -29 -35 0
-3 -22 -29 -39 0
-3 -22 -35 -39 0
-3 -29 -35 -39 0
-7 -18 -22 -29 0
-7 -18 -22 -35 0
-7 -18 -22 -39 0
-7 -18 -29 -35 0
-7 -18 -29 -39 0
-7 -18 -35 -39 0
-7 -22 -29 -35 0
-7 -22 -29 -39 0
-7 -22 -35 -39 0
-7 -29 -35 -39 0
-18 -22 -29 -35 0
-18 -22 -29 -39 0
-18 -22 -35 -39 0
-18 -29 -35 -39 0
-22 -29 -35 -39 0
-4 -8 -13 -23 0
-4 -8 -13 -30 0
-4 -8 -13 -36 0
-4 -8 -13 -40 0
-4 -8 -23 -30 0
-4 -8 -23 -36 0
-4 -8 -23 -40 0
-4 -8 -30 -36 0
-4 -8 -30 -40 0
-4 -8 -36 -40 0
-4 -13 -23 -30 0
-4 -13 -23 -36 0
-4 -13 -23 -40 0
-4 -13 -30 -36 0
-4 -13 -30 -40 0
-4 -13 -36 -40 0
-4 -23 -30 -36 0
-4 -23 -30 -40 0
-4 -23 -36 -40 0
-4 -30 -36 -40 0
-8 -13 -23 -30 0
-8 -13 -23 -36 0
-8 -13 -23 -40 0
-8 -13 -30 -36 0
-8 -13 -30 -40 0
-8 -13 -36 -40 0
-8 -23 -30 -36 0
-8 -23 -30 -40 0
-8 -23 -36 -40 0
-8 -30 -36 -40 0
-13 -23 -30 -36 0
-13 -23 -30 -40 0
-13 -23 -36 -40 0
-13 -30 -36 -40 0
-23 -30 -36 -40 0
-5 -9 -14 -24 0
-5 -9 -14 -25 0
-5 -9 -14 -31 0
-5 -9 -14 -41 0
-5 -9 -24 -25 0
-5 -9 -24 -31 0
-5 -9 -24 -41 0
-5 -9 -25 -31 0
-5 -9 -25 -41 0
-5 -9 -31 -41 0
-5 -14 -24 -25 0
-5 -14 -24 -31 0
-5 -14 -24 -41 0
-5 -14 -25 -31 0
-5 -14 -25 -41 0
-5 -14 -31 -41 0
-5 -24 -25 -31 0
-5 -24 -25 -41 0
-5 -24 -31 -41 0
-5 -25 -31 -41 0
-9 -14 -24 -25 0
-9 -14 -24 -31 0
-9 -14 -24 -41 0
-9 -14 -25 -31 0
-9 -14 -25 -41 0
-9 -14 -31 -41 0
-9 -24 -25 -31 0
-9 -24 -25 -41 0
-9 -24 -31 -41 0
-9 -25 -31 -41 0
-14 -24 -25 -31 0
-14 -24 -25 -41 0
-14 -24 -31 -41 0
-14 -25 -31 -41 0
-24 -25 -31 -41 0
-6 -10 -15 -19 0
-6 -10 -15 -26 0
-6 -10 -15 -32 0
-6 -10 -15 -42 0
-6 -10 -19 -26 0
-6 -10 -19 -32 0
-6 -10 -19 -42 0
-6 -10 -26 -32 0
-6 -10 -26 -42 0
-6 -10 -32 -42 0
-6 -15 -19 -26 0
-6 -15 -19 -32 0
-6 -15 -19 -42 0
-6 -15 -26 -32 0
-6 -15 -26 -42 0
-6 -15 -32 -42 0
-6 -19 -26 -32 0
-6 -19 -26 -42 0
-6 -19 -32 -42 0
-6 -26 -32 -42 0
-10 -15 -19 -26 0
-10 -15 -19 -32 0
-10 -15 -19 -42 0
-10 -15 -26 -32 0
-10 -15 -26 -42 0
-10 -15 -32 -42 0
-10 -19 -26 -32 0
-10 -19 -26 -42 0
-10 -19 -32 -42 0
-10 -26 -32 -42 0
-15 -19 -26 -32 0
-15 -19 -26 -42 0
-15 -19 -32 -42 0
-15 -26 -32 -42 0
-19 -26 -32 -42 0
-1 -12 -13 -19 0
-1 -12 -13 -29 0
-1 -12 -13 -32 0
-1 -12 -13 -40 0
-1 -12 -19 -29 0
-1 -12 -19 -32 0
-1 -12 -19 -40 0
-1 -12 -29 -32 0
-1 -12 -29 -40 0
-1 -12 -32 -40 0
-1 -13 -19 -29 0
-1 -13 -19 -32 0
-1 -13 -19 -40 0
-1 -13 -29 -32 0
-1 -13 -29 -40 0
-1 -13 -32 -40 0
-1 -19 -29 -32 0
-1 -19 -29 -40 0
-1 -19 -32 -40 0
-1 -29 -32 -40 0
-12 -13 -19 -29 0
-12 -13 -19 -32 0
-12 -13 -19 -40 0
-12 -13 -29 -32 0
-12 -13 -29 -40 0
-12 -13 -32 -40 0
-12 -19 -29 -32 0
-12 -19 -29 -40 0
-12 -19 -32 -40 0
-12 -29 -32 -40 0
-13 -19 -29 -32 0
-13 -19 -29 -40 0
-13 -19 -32 -40 0
-13 -29 -32 -40 0
-19 -29 -32 -40 0
-2 -7 -14 -20 0
-2 -7 -14 -25 0
-2 -7 -14 -33 0
-2 -7 -14 -37 0
-2 -7 -20 -25 0
-2 -7 -20 -33 0
-2 -7 -20 -37 0
-2 -7 -25 -33 0
-2 -7 -25 -37 0
-2 -7 -33 -37 0
-2 -14 -20 -25 0
-2 -14 -20 -33 0
-2 -14 -20 -37 0
-2 -14 -25 -33 0
-2 -14 -25 -37 0
-2 -14 -33 -37 0
-2 -20 -25 -33 0
-2 -20 -25 -37 0
-2 -20 -33 -37 0
-2 -25 -33 -37 0
-7 -14 -20 -25 0
-7 -14 -20 -33 0
-7 -14 -20 -37 0
-7 -14 -25 -33 0
-7 -14 -25 -37 0
-7 -14 -33 -37 0
-7 -20 -25 -33 0
-7 -20 -25 -37 0
-7 -20 -33 -37 0
-7 -25 -33 -37 0
-14 -20 -25 -33 0
-14 -20 -25 -37 0
-14 -20 -33 -37 0
-14 -25 -33 -37 0
-20 -25 -33 -37 0
-3 -8 -15 -21 0
-3 -8 -15 -26 0
-3 -8 -15 -34 0
-3 -8 -15 -38 0
-3 -8 -21 -26 0
-3 -8 -21 -34 0
-3 -8 -21 -38 0
-3 -8 -26 -34 0
-3 -8 -26 -38 0
-3 -8 -34 -38 0
-3 -15 -21 -26 0
-3 -15 -21 -34 0
-3 -15 -21 -38 0
-3 -15 -26 -34 0
-3 -15 -26 -38 0
-3 -15 -34 -38 0
-3 -21 -26 -34 0
-3 -21 -26 -38 0
-3 -21 -34 -38 0
-3 -26 -34 -38 0
-8 -15 -21 -26 0
-8 -15 -21 -34 0
-8 -15 -21 -38 0
-8 -15 -26 -34 0
-8 -15 -26 -38 0
-8 -15 -34 -38 0
-8 -21 -26 -34 0
-8 -21 -26 -38 0
-8 -21 -34 -38 0
-8 -26 -34 -38 0
-15 -21 -26 -34 0
-15 -21 -26 -38 0
-15 -21 -34 -38 0
-15 -26 -34 -38 0
-21 -26 -34 -38 0
-4 -9 -16 -22 0
-4 -9 -16 -27 0
-4 -9 -16 -35 0
-4 -9 -16 -39 0
-4 -9 -22 -27 0
-4 -9 -22 -35 0
-4 -9 -22 -39 0
-4 -9 -27 -35 0
-4 -9 -27 -39 0
-4 -9 -35 -39 0
-4 -16 -22 -27 0
-4 -16 -22 -35 0
-4 -16 -22 -39 0
-4 -16 -27 -35 0
-4 -16 -27 -39 0
-4 -16 -35 -39 0
-4 -22 -27 -35 0
-4 -22 -27 -39 0
-4 -22 -35 -39 0
-4 -27 -35 -39 0
-9 -16 -22 -27 0
-9 -16 -22 -35 0
-9 -16 -22 -39 0
-9 -16 -27 -35 0
-9 -16 -27 -39 0
-9 -16 -35 -39 0
-9 -22 -27 -35 0
-9 -22 -27 -39 0
-9 -22 -35 -39 0
-9 -27 -35 -39 0
-16 -22 -27 -35 0
-16 -22 -27 -39 0
-16 -22 -35 -39 0
-16 -27 -35 -39 0
-22 -27 -35 -39 0
-5 -10 -17 -23 0
-5 -10 -17 -28 0
-5 -10 -17 -36 0
-5 -10 -17 -40 0
-5 -10 -23 -28 0
-5 -10 -23 -36 0
-5 -10 -23 -40 0
-5 -10 -28 -36 0
-5 -10 -28 -40 0
-5 -10 -36 -40 0
-5 -17 -23 -28 0
-5 -17 -23 -36 0
-5 -17 -23 -40 0
-5 -17 -28 -36 0
-5 -17 -28 -40 0
-5 -17 -36 -40 0
-5 -23 -28 -36 0
-5 -23 -28 -40 0
-5 -23 -36 -40 0
-5 -28 -36 -40 0
-10 -17 -23 -28 0
-10 -17 -23 -36 0
-10 -17 -23 -40 0
-10 -17 -28 -36 0
-10 -17 -28 -40 0
-10 -17 -36 -40 0
-10 -23 -28 -36 0
-10 -23 -28 -40 0
-10 -23 -36 -40 0
-10 -28 -36 -40 0
-17 -23 -28 -36 0
-17 -23 -28 -40 0
-17 -23 -36 -40 0
-17 -28 -36 -40 0
-23 -28 -36 -40 0
-6 -11 -18 -24 0
-6 -11 -18 -29 0
-6 -11 -18 -31 0
-6 -11 -18 -41 0
-6 -11 -24 -29 0
-6 -11 -24 -31 0
-6 -11 -24 -41 0
-6 -11 -29 -31 0
-6 -11 -29 -41 0
-6 -11 -31 -41 0
-6 -18 -24 -29 0
-6 -18 -24 -31 0
-6 -18 -24 -41 0
-6 -18 -29 -31 0
-6 -18 -29 -41 0
-6 -18 -31 -41 0
-6 -24 -29 -31 0
-6 -24 -29 -41 0
-6 -24 -31 -41 0
-6 -29 -31 -41 0
-11 -18 -24 -29 0
-11 -18 -24 -31 0
-11 -18 -24 -41 0
-11 -18 -29 -31 0
-11 -18 -29 -41 0
-11 -18 -31 -41 0
-11 -24 -29 -31 0
-11 -24 -29 -41 0
-11 -24 -31 -41 0
-11 -29 -31 -41 0
-18 -24 -29 -31 0
-18 -24 -29 -41 0
-18 -24 -31 -41 0
-18 -29 -31 -41 0
-24 -29 -31 -41 0
-1 -11 -13 -21 0
-1 -11 -13 -27 0
-1 -11 -13 -36 0
-1 -11 -13 -41 0
-1 -11 -21 -27 0
-1 -11 -21 -36 0
-1 -11 -21 -41 0
-1 -11 -27 -36 0
-1 -11 -27 -41 0
-1 -11 -36 -41 0
-1 -13 -21 -27 0
-1 -13 -21 -36 0
-1 -13 -21 -41 0
-1 -13 -27 -36 0
-1 -13 -27 -41 0
-1 -13 -36 -41 0
-1 -21 -27 -36 0
-1 -21 -27 -41 0
-1 -21 -36 -41 0
-1 -27 -36 -41 0
-11 -13 -21 -27 0
-11 -13 -21 -36 0
-11 -13 -21 -41 0
-11 -13 -27 -36 0
-11 -13 -27 -41 0
-11 -13 -36 -41 0
-11 -21 -27 -36 0
-11 -21 -27 -41 0
-11 -21 -36 -41 0
-11 -27 -36 -41 0
-13 -21 -27 -36 0
-13 -21 -27 -41 0
-13 -21 -36 -41 0
-13 -27 -36 -41 0
-21 -27 -36 -41 0
-2 -12 -14 -22 0
-2 -12 -14 -28 0
-2 -12 -14 -31 0
-2 -12 -14 -42 0
-2 -12 -22 -28 0
-2 -12 -22 -31 0
-2 -12 -22 -42 0
-2 -12 -28 -31 0
-2 -12 -28 -42 0
-2 -12 -31 -42 0
-2 -14 -22 -28 0
-2 -14 -22 -31 0
-2 -14 -22 -42 0
-2 -14 -28 -31 0
-2 -14 -28 -42 0
-2 -14 -31 -42 0
-2 -22 -28 -31 0
-2 -22 -28 -42 0
-2 -22 -31 -42 0
-2 -28 -31 -42 0
-12 -14 -22 -28 0
-12 -14 -22 -31 0
-12 -14 -22 -42 0
-12 -14 -28 -31 0
-12 -14 -28 -42 0
-12 -14 -31 -42 0
-12 -22 -28 -31 0
-12 -22 -28 -42 0
-12 -22 -31 -42 0
-12 -28 -31 -42 0
-14 -22 -28 -31 0
-14 -22 -28 -42 0
-14 -22 -31 -42 0
-14 -28 -31 -42 0
-22 -28 -31 -42 0
-3 -7 -15 -23 0
-3 -7 -15 -29 0
-3 -7 -15 -32 0
-3 -7 -15 -37 0
-3 -7 -23 -29 0
-3 -7 -23 -32 0
-3 -7 -23 -37 0
-3 -7 -29 -32 0
-3 -7 -29 -37 0
-3 -7 -32 -37 0
-3 -15 -23 -29 0
-3 -15 -23 -32 0
-3 -15 -23 -37 0
-3 -15 -29 -32 0
-3 -15 -29 -37 0
-3 -15 -32 -37 0
-3 -23 -29 -32 0
-3 -23 -29 -37 0
-3 -23 -32 -37 0
-3 -29 -32 -37 0
-7 -15 -23 -29 0
-7 -15 -23 -32 0
-7 -15 -23 -37 0
-7 -15 -29 -32 0
-7 -15 -29 -37 0
-7 -15 -32 -37 0
-7 -23 -29 -32 0
-7 -23 -29 -37 0
-7 -23 -32 -37 0
-7 -29 -32 -37 0
-15 -23 -29 -32 0
-15 -23 -29 -37 0
-15 -23 -32 -37 0
-15 -29 -32 -37 0
-23 -29 -32 -37 0
-4 -8 -16 -24 0
-4 -8 -16 -30 0
-4 -8 -16 -33 0
-4 -8 -16 -38 0
-4 -8 -24 -30 0
-4 -8 -24 -33 0
-4 -8 -24 -38 0
-4 -8 -30 -33 0
-4 -8 -30 -38 0
-4 -8 -33 -38 0
-4 -16 -24 -30 0
-4 -16 -24 -33 0
-4 -16 -24 -38 0
-4 -16 -30 -33 0
-4 -16 -30 -38 0
-4 -16 -33 -38 0
-4 -24 -30 -33 0
-4 -24 -30 -38 0
-4 -24 -33 -38 0
-4 -30 -33 -38 0
-8 -16 -24 -30 0
-8 -16 -24 -33 0
-8 -16 -24 -38 0
-8 -16 -30 -33 0
-8 -16 -30 -38 0
-8 -16 -33 -38 0
-8 -24 -30 -33 0
-8 -24 -30 -38 0
-8 -24 -33 -38 0
-8 -30 -33 -38 0
-16 -24 -30 -33 0
-16 -24 -30 -38 0
-16 -24 -33 -38 0
-16 -30 -33 -38 0
-24 -30 -33 -38 0
-5 -9 -17 -19 0
-5 -9 -17 -25 0
-5 -9 -17 -34 0
-5 -9 -17 -39 0
-5 -9 -19 -25 0
-5 -9 -19 -34 0
-5 -9 -19 -39 0
-5 -9 -25 -34 0
-5 -9 -25 -39 0
-5 -9 -34 -39 0
-5 -17 -19 -25 0
-5 -17 -19 -34 0
-5 -17 -19 -39 0
-5 -17 -25 -34 0
-5 -17 -25 -39 0
-5 -17 -34 -39 0
-5 -19 -25 -34 0
-5 -19 -25 -39 0
-5 -19 -34 -39 0
-5 -25 -34 -39 0
-9 -17 -19 -25 0
-9 -17 -19 -34 0
-9 -17 -19 -39 0
-9 -17 -25 -34 0
-9 -17 -25 -39 0
-9 -17 -34 -39 0
-9 -19 -25 -34 0
-9 -19 -25 -39 0
-9 -19 -34 -39 0
-9 -25 -34 -39 0
-17 -19 -25 -34 0
-17 -19 -25 -39 0
-17 -19 -34 -39 0
-17 -25 -34 -39 0
-19 -25 -34 -39 0
-6 -10 -18 -20 0
-6 -10 -18 -26 0
-6 -10 -18 -35 0
-6 -10 -18 -40 0
-6 -10 -20 -26 0
-6 -10 -20 -35 0
-6 -10 -20 -40 0
-6 -10 -26 -35 0
-6 -10 -26 -40 0
-6 -10 -35 -40 0
-6 -18 -20 -26 0
-6 -18 -20 -35 0
-6 -18 -20 -40 0
-6 -18 -26 -35 0
-6 -18 -26 -40 0
-6 -18 -35 -40 0
-6 -20 -26 -35 0
-6 -20 -26 -40 0
-6 -20 -35 -40 0
-6 -26 -35 -40 0
-10 -18 -20 -26 0
-10 -18 -20 -35 0
-10 -18 -20 -40 0
-10 -18 -26 -35 0
-10 -18 -26 -40 0
-10 -18 -35 -40 0
-10 -20 -26 -35 0
-10 -20 -26 -40 0
-10 -20 -35 -40 0
-10 -26 -35 -40 0
-18 -20 -26 -35 0
-18 -20 -26 -40 0
-18 -20 -35 -40 0
-18 -26 -35 -40 0
-20 -26 -35 -40 0
-1 -9 -14 -19 0
-1 -9 -14 -30 0
-1 -9 -14 -33 0
-1 -9 -14 -37 0
-1 -9 -19 -30 0
-1 -9 -19 -33 0
-1 -9 -19 -37 0
-1 -9 -30 -33 0
-1 -9 -30 -37 0
-1 -9 -33 -37 0
-1 -14 -19 -30 0
-1 -14 -19 -33 0
-1 -14 -19 -37 0
-1 -14 -30 -33 0
-1 -14 -30 -37 0
-1 -14 -33 -37 0
-1 -19 -30 -33 0
-1 -19 -30 -37 0
-1 -19 -33 -37 0
-1 -30 -33 -37 0
-9 -14 -19 -30 0
-9 -14 -19 -33 0
-9 -14 -19 -37 0
-9 -14 -30 -33 0
-9 -14 -30 -37 0
-9 -14 -33 -37 0
-9 -19 -30 -33 0
-9 -19 -30 -37 0
-9 -19 -33 -37 0
-9 -30 -33 -37 0
-14 -19 -30 -33 0
-14 -19 -30 -37 0
-14 -19 -33 -37 0
-14 -30 -33 -37 0
-19 -30 -33 -37 0
-2 -10 -15 -20 0
-2 -10 -15 -25 0
-2 -10 -15 -34 0
-2 -10 -15 -38 0
-2 -10 -20 -25 0
-2 -10 -20 -34 0
-2 -10 -20 -38 0
-2 -10 -25 -34 0
-2 -10 -25 -38 0
-2 -10 -34 -38 0
-2 -15 -20 -25 0
-2 -15 -20 -34 0
-2 -15 -20 -38 0
-2 -15 -25 -34 0
-2 -15 -25 -38 0
-2 -15 -34 -38 0
-2 -20 -25 -34 0
-2 -20 -25 -38 0
-2 -20 -34 -38 0
-2 -25 -34 -38 0
-10 -15 -20 -25 0
-10 -15 -20 -34 0
-10 -15 -20 -38 0
-10 -15 -25 -34 0
-10 -15 -25 -38 0
-10 -15 -34 -38 0
-10 -20 -25 -34 0
-10 -20 -25 -38 0
-10 -20 -34 -38 0
-10 -25 -34 -38 0
-15 -20 -25 -34 0
-15 -20 -25 -38 0
-15 -20 -34 -38 0
-15 -25 -34 -38 0
-20 -25 -34 -38 0
-3 -11 -16 -21 0
-3 -11 -16 -26 0
-3 -11 -16 -35 0
-3 -11 -16 -39 0
-3 -11 -21 -26 0
-3 -11 -21 -35 0
-3 -11 -21 -39 0
-3 -11 -26 -35 0
-3 -11 -26 -39 0
-3 -11 -35 -39 0
-3 -16 -21 -26 0
-3 -16 -21 -35 0
-3 -16 -21 -39 0
-3 -16 -26 -35 0
-3 -16 -26 -39 0
-3 -16 -35 -39 0
-3 -21 -26 -35 0
-3 -21 -26 -39 0
-3 -21 -35 -39 0
-3 -26 -35 -39 0
-11 -16 -21 -26 0
-11 -16 -21 -35 0
-11 -16 -21 -39 0
-11 -16 -26 -35 0
-11 -16 -26 -39 0
-11 -16 -35 -39 0
-11 -21 -26 -35 0
-11 -21 -26 -39 0
-11 -21 -35 -39 0
-11 -26 -35 -39 0
-16 -21 -26 -35 0
-16 -21 -26 -39 0
-16 -21 -35 -39 0
-16 -26 -35 -39 0
-21 -26 -35 -39 0
-4 -12 -17 -22 0
-4 -12 -17 -27 0
-4 -12 -17 -36 0
-4 -12 -17 -40 0
-4 -12 -22 -27 0
-4 -12 -22 -36 0
-4 -12 -22 -40 0
-4 -12 -27 -36 0
-4 -12 -27 -40 0
-4 -12 -36 -40 0
-4 -17 -22 -27 0
-4 -17 -22 -36 0
-4 -17 -22 -40 0
-4 -17 -27 -36 0
-4 -17 -27 -40 0
-4 -17 -36 -40 0
-4 -22 -27 -36 0
-4 -22 -27 -40 0
-4 -22 -36 -40 0
-4 -27 -36 -40 0
-12 -17 -22 -27 0
-12 -17 -22 -36 0
-12 -17 -22 -40 0
-12 -17 -27 -36 0
-12 -17 -27 -40 0
-12 -17 -36 -40 0
-12 -22 -27 -36 0
-12 -22 -27 -40 0
-12 -22 -36 -40 0
-12 -27 -36 -40 0
-17 -22 -27 -36 0
-17 -22 -27 -40 0
-17 -22 -36 -40 0
-17 -27 -36 -40 0
-22 -27 -36 -40 0
-5 -7 -18 -23 0
-5 -7 -18 -28 0
-5 -7 -18 -31 0
-5 -7 -18 -41 0
-5 -7 -23 -28 0
-5 -7 -23 -31 0
-5 -7 -23 -41 0
-5 -7 -28 -31 0
-5 -7 -28 -41 0
-5 -7 -31 -41 0
-5 -18 -23 -28 0
-5 -18 -23 -31 0
-5 -18 -23 -41 0
-5 -18 -28 -31 0
-5 -18 -28 -41 0
-5 -18 -31 -41 0
-5 -23 -28 -31 0
-5 -23 -28 -41 0
-5 -23 -31 -41 0
-5 -28 -31 -41 0
-7 -18 -23 -28 0
-7 -18 -23 -31 0
-7 -18 -23 -41 0
-7 -18 -28 -31 0
-7 -18 -28 -41 0
-7 -18 -31 -41 0
-7 -23 -28 -31 0
-7 -23 -28 -41 0
-7 -23 -31 -41 0
-7 -28 -31 -41 0
-18 -23 -28 -31 0
-18 -23 -28 -41 0
-18 -23 -31 -41 0
-18 -28 -31 -41 0
-23 -28 -31 -41 0
-6 -8 -13 -24 0
-6 -8 -13 -29 0
-6 -8 -13 -32 0
-6 -8 -13 -42 0
-6 -8 -24 -29 0
-6 -8 -24 -32 0
-6 -8 -24 -42 0
-6 -8 -29 -32 0
-6 -8 -29 -42 0
-6 -8 -32 -42 0
-6 -13 -24 -29 0
-6 -13 -24 -32 0
-6 -13 -24 -42 0
-6 -13 -29 -32 0
-6 -13 -29 -42 0
-6 -13 -32 -42 0
-6 -24 -29 -32 0
-6 -24 -29 -42 0
-6 -24 -32 -42 0
-6 -29 -32 -42 0
-8 -13 -24 -29 0
-8 -13 -24 -32 0
-8 -13 -24 -42 0
-8 -13 -29 -32 0
-8 -13 -29 -42 0
-8 -13 -32 -42 0
-8 -24 -29 -32 0
-8 -24 -29 -42 0
-8 -24 -32 -42 0
-8 -29 -32 -42 0
-13 -24 -29 -32 0
-13 -24 -29 -42 0
-13 -24 -32 -42 0
-13 -29 -32 -42 0
-24 -29 -32 -42 0
-1 -10 -15 -21 0
-1 -10 -15 -30 0
-1 -10 -15 -33 0
-1 -10 -15 -40 0
-1 -10 -21 -30 0
-1 -10 -21 -33 0
-1 -10 -21 -40 0
-1 -10 -30 -33 0
-1 -10 -30 -40 0
-1 -10 -33 -40 0
-1 -15 -21 -30 0
-1 -15 -21 -33 0
-1 -15 -21 -40 0
-1 -15 -30 -33 0
-1 -15 -30 -40 0
-1 -15 -33 -40 0
-1 -21 -30 -33 0
-1 -21 -30 -40 0
-1 -21 -33 -40 0
-1 -30 -33 -40 0
-10 -15 -21 -30 0
-10 -15 -21 -33 0
-10 -15 -21 -40 0
-10 -15 -30 -33 0
-10 -15 -30 -40 0
-10 -15 -33 -40 0
-10 -21 -30 -33 0
-10 -21 -30 -40 0
-10 -21 -33 -40 0
-10 -30 -33 -40 0
-15 -21 -30 -33 0
-15 -21 -30 -40 0
-15 -21 -33 -40 0
-15 -30 -33 -40 0
-21 -30 -33 -40 0
-2 -11 -16 -22 0
-2 -11 -16 -25 0
-2 -11 -16 -34 0
-2 -11 -16 -41 0
-2 -11 -22 -25 0
-2 -11 -22 -34 0
-2 -11 -22 -41 0
-2 -11 -25 -34 0
-2 -11 -25 -41 0
-2 -11 -34 -41 0
-2 -16 -22 -25 0
-2 -16 -22 -34 0
-2 -16 -22 -41 0
-2 -16 -25 -34 0
-2 -16 -25 -41 0
-2 -16 -34 -41 0
-2 -22 -25 -34 0
-2 -22 -25 -41 0
-2 -22 -34 -41 0
-2 -25 -34 -41 0
-11 -16 -22 -25 0
-11 -16 -22 -34 0
-11 -16 -22 -41 0
-11 -16 -25 -34 0
-11 -16 -25 -41 0
-11 -16 -34 -41 0
-11 -22 -25 -34 0
-11 -22 -25 -41 0
-11 -22 -34 -41 0
-11 -25 -34 -41 0
-16 -22 -25 -34 0
-16 -22 -25 -41 0
-16 -22 -34 -41 0
-16 -25 -34 -41 0
-22 -25 -34 -41 0
-3 -12 -17 -23 0
-3 -12 -17 -26 0
-3 -12 -17 -34 0
-3 -12 -17 -42 0
-3 -12 -23 -26 0
-3 -12 -23 -34 0
-3 -12 -23 -42 0
-3 -12 -26 -34 0
-3 -12 -26 -42 0
-3 -12 -34 -42 0
-3 -17 -23 -26 0
-3 -17 -23 -34 0
-3 -17 -23 -42 0
-3 -17 -26 -34 0
-3 -17 -26 -42 0
-3 -17 -34 -42 0
-3 -23 -26 -34 0
-3 -23 -26 -42 0
-3 -23 -34 -42 0
-3 -26 -34 -42 0
-12 -17 -23 -26 0
-12 -17 -23 -34 0
-12 -17 -23 -42 0
-12 -17 -26 -34 0
-12 -17 -26 -42 0
-12 -17 -34 -42 0
-12 -23 -26 -34 0
-12 -23 -26 -42 0
-12 -23 -34 -42 0
-12 -26 -34 -42 0
-17 -23 -26 -34 0
-17 -23 -26 -42 0
-17 -23 -34 -42 0
-17 -26 -34 -42 0
-23 -26 -34 -42 0
-4 -7 -18 -24 0
-4 -7 -18 -27 0
-4 -7 -18 -36 0
-4 -7 -18 -37 0
-4 -7 -24 -27 0
-4 -7 -24 -36 0
-4 -7 -24 -37 0
-4 -7 -27 -36 0
-4 -7 -27 -37 0
-4 -7 -36 -37 0
-4 -18 -24 -27 0
-4 -18 -24 -36 0
-4 -18 -24 -37 0
-4 -18 -27 -36 0
-4 -18 -27 -37 0
-4 -18 -36 -37 0
-4 -24 -27 -36 0
-4 -24 -27 -37 0
-4 -24 -36 -37 0
-4 -27 -36 -37 0
-7 -18 -24 -27 0
-7 -18 -24 -36 0
-7 -18 -24 -37 0
-7 -18 -27 -36 0
-7 -18 -27 -37 0
-7 -18 -36 -37 0
-7 -24 -27 -36 0
-7 -24 -27 -37 0
-7 -24 -36 -37 0
-7 -27 -36 -37 0
-18 -24 -27 -36 0
-18 -24 -27 -37 0
-18 -24 -36 -37 0
-18 -27 -36 -37 0
-24 -27 -36 -37 0
-5 -8 -13 -19 0
-5 -8 -13 -28 0
-5 -8 -13 -31 0
-5 -8 -13 -38 0
-5 -8 -19 -28 0
-5 -8 -19 -31 0
-5 -8 -19 -38 0
-5 -8 -28 -31 0
-5 -8 -28 -38 0
-5 -8 -31 -38 0
-5 -13 -19 -28 0
-5 -13 -19 -31 0
-5 -13 -19 -38 0
-5 -13 -28 -31 0
-5 -13 -28 -38 0
-5 -13 -31 -38 0
-5 -19 -28 -31 0
-5 -19 -28 -38 0
-5 -19 -31 -38 0
-5 -28 -31 -38 0
-8 -13 -19 -28 0
-8 -13 -19 -31 0
-8 -13 -19 -38 0
-8 -13 -28 -31 0
-8 -13 -28 -38 0
-8 -13 -31 -38 0
-8 -19 -28 -31 0
-8 -19 -28 -38 0
-8 -19 -31 -38 0
-8 -28 -31 -38 0
-13 -19 -28 -31 0
-13 -19 -28 -38 0
-13 -19 -31 -38 0
-13 -28 -31 -38 0
-19 -28 -31 -38 0
-6 -9 -14 -20 0
-6 -9 -14 -29 0
-6 -9 -14 -33 0
-6 -9 -14 -39 0
-6 -9 -20 -29 0
-6 -9 -20 -33 0
-6 -9 -20 -39 0
-6 -9 -29 -33 0
-6 -9 -29 -39 0
-6 -9 -33 -39 0
-6 -14 -20 -29 0
-6 -14 -20 -33 0
-6 -14 -20 -39 0
-6 -14 -29 -33 0
-6 -14 -29 -39 0
-6 -14 -33 -39 0
-6 -20 -29 -33 0
-6 -20 -29 -39 0
-6 -20 -33 -39 0
-6 -29 -33 -39 0
-9 -14 -20 -29 0
-9 -14 -20 -33 0
-9 -14 -20 -39 0
-9 -14 -29 -33 0
-9 -14 -29 -39 0
-9 -14 -33 -39 0
-9 -20 -29 -33 0
-9 -20 -29 -39 0
-9 -20 -33 -39 0
-9 -29 -33 -39 0
-14 -20 -29 -33 0
-14 -20 -29 -39 0
-14 -20 -33 -39 0
-14 -29 -33 -39 0
-20 -29 -33 -39 0
-1 -12 -16 -24 0
-1 -12 -16 -25 0
-1 -12 -16 -35 0
-1 -12 -16 -42 0
-1 -12 -24 -25 0
-1 -12 -24 -35 0
-1 -12 -24 -42 0
-1 -12 -25 -35 0
-1 -12 -25 -42 0
-1 -12 -35 -42 0
-1 -16 -24 -25 0
-1 -16 -24 -35 0
-1 -16 -24 -42 0
-1 -16 -25 -35 0
-1 -16 -25 -42 0
-1 -16 -35 -42 0
-1 -24 -25 -35 0
-1 -24 -25 -42 0
-1 -24 -35 -42 0
-1 -25 -35 -42 0
-12 -16 -24 -25 0
-12 -16 -24 -35 0
-12 -16 -24 -42 0
-12 -16 -25 -35 0
-12 -16 -25 -42 0
-12 -16 -35 -42 0
-12 -24 -25 -35 0
-12 -24 -25 -42 0
-12 -24 -35 -42 0
-12 -25 -35 -42 0
-16 -24 -25 -35 0
-16 -24 -25 -42 0
-16 -24 -35 -42 0
-16 -25 -35 -42 0
-24 -25 -35 -42 0
-2 -7 -17 -19 0
-2 -7 -17 -26 0
-2 -7 -17 -36 0
-2 -7 -17 -37 0
-2 -7 -19 -26 0
-2 -7 -19 -36 0
-2 -7 -19 -37 0
-2 -7 -26 -36 0
-2 -7 -26 -37 0
-2 -7 -36 -37 0
-2 -17 -19 -26 0
-2 -17 -19 -36 0
-2 -17 -19 -37 0
-2 -17 -26 -36 0
-2 -17 -26 -37 0
-2 -17 -36 -37 0
-2 -19 -26 -36 0
-2 -19 -26 -37 0
-2 -19 -36 -37 0
-2 -26 -36 -37 0
-7 -17 -19 -26 0
-7 -17 -19 -36 0
-7 -17 -19 -37 0
-7 -17 -26 -36 0
-7 -17 -26 -37 0
-7 -17 -36 -37 0
-7 -19 -26 -36 0
-7 -19 -26 -37 0
-7 -19 -36 -37 0
-7 -26 -36 -37 0
-17 -19 -26 -36 0
-17 -19 -26 -37 0
-17 -19 -36 -37 0
-17 -26 -36 -37 0
-19 -26 -36 -37 0
-3 -8 -18 -20 0
-3 -8 -18 -27 0
-3 -8 -18 -31 0
-3 -8 -18 -38 0
-3 -8 -20 -27 0
-3 -8 -20 -31 0
-3 -8 -20 -38 0
-3 -8 -27 -31 0
-3 -8 -27 -38 0
-3 -8 -31 -38 0
-3 -18 -20 -27 0
-3 -18 -20 -31 0
-3 -18 -20 -38 0
-3 -18 -27 -31 0
-3 -18 -27 -38 0
-3 -18 -31 -38 0
-3 -20 -27 -31 0
-3 -20 -27 -38 0
-3 -20 -31 -38 0
-3 -27 -31 -38 0
-8 -18 -20 -27 0
-8 -18 -20 -31 0
-8 -18 -20 -38 0
-8 -18 -27 -31 0
-8 -18 -27 -38 0
-8 -18 -31 -38 0
-8 -20 -27 -31 0
-8 -20 -27 -38 0
-8 -20 -31 -38 0
-8 -27 -31 -38 0
-18 -20 -27 -31 0
-18 -20 -27 -38 0
-18 -20 -31 -38 0
-18 -27 -31 -38 0
-20 -27 -31 -38 0
-4 -9 -13 -21 0
-4 -9 -13 -28 0
-4 -9 -13 -32 0
-4 -9 -13 -39 0
-4 -9 -21 -28 0
-4 -9 -21 -32 0
-4 -9 -21 -39 0
-4 -9 -28 -32 0
-4 -9 -28 -39 0
-4 -9 -32 -39 0
-4 -13 -21 -28 0
-4 -13 -21 -32 0
-4 -13 -21 -39 0
-4 -13 -28 -32 0
-4 -13 -28 -39 0
-4 -13 -32 -39 0
-4 -21 -28 -32 0
-4 -21 -28 -39 0
-4 -21 -32 -39 0
-4 -28 -32 -39 0
-9 -13 -21 -28 0
-9 -13 -21 -32 0
-9 -13 -21 -39 0
-9 -13 -28 -32 0
-9 -13 -28 -39 0
-9 -13 -32 -39 0
-9 -21 -28 -32 0
-9 -21 -28 -39 0
-9 -21 -32 -39 0
-9 -28 -32 -39 0
-13 -21 -28 -32 0
-13 -21 -28 -39 0
-13 -21 -32 -39 0
-13 -28 -32 -39 0
-21 -28 -32 -39 0
-5 -10 -14 -22 0
-5 -10 -14 -29 0
-5 -10 -14 -33 0
-5 -10 -14 -40 0
-5 -10 -22 -29 0
-5 -10 -22 -33 0
-5 -10 -22 -40 0
-5 -10 -29 -33 0
-5 -10 -29 -40 0
-5 -10 -33 -40 0
-5 -14 -22 -29 0
-5 -14 -22 -33 0
-5 -14 -22 -40 0
-5 -14 -29 -33 0
-5 -14 -29 -40 0
-5 -14 -33 -40 0
-5 -22 -29 -33 0
-5 -22 -29 -40 0
-5 -22 -33 -40 0
-5 -29 -33 -40 0
-10 -14 -22 -29 0
-10 -14 -22 -33 0
-10 -14 -22 -40 0
-10 -14 -29 -33 0
-10 -14 -29 -40 0
-10 -14 -33 -40 0
-10 -22 -29 -33 0
-10 -22 -29 -40 0
-10 -22 -33 -40 0
-10 -29 -33 -40 0
-14 -22 -29 -33 0
-14 -22 -29 -40 0
-14 -22 -33 -40 0
-14 -29 -33 -40 0
-22 -29 -33 -40 0
-6 -11 -15 -23 0
-6 -11 -15 -30 0
-6 -11 -15 -34 0
-6 -11 -15 -41 0
-6 -11 -23 -30 0
-6 -11 -23 -34 0
-6 -11 -23 -41 0
-6 -11 -30 -34 0
-6 -11 -30 -41 0
-6 -11 -34 -41 0
-6 -15 -23 -30 0
-6 -15 -23 -34 0
-6 -15 -23 -41 0
-6 -15 -30 -34 0
-6 -15 -30 -41 0
-6 -15 -34 -41 0
-6 -23 -30 -34 0
-6 -23 -30 -41 0
-6 -23 -34 -41 0
-6 -30 -34 -41 0
-11 -15 -23 -30 0
-11 -15 -23 -34 0
-11 -15 -23 -41 0
-11 -15 -30 -34 0
-11 -15 -30 -41 0
-11 -15 -34 -41 0
-11 -23 -30 -34 0
-11 -23 -30 -41 0
-11 -23 -34 -41 0
-11 -30 -34 -41 0
-15 -23 -30 -34 0
-15 -23 -30 -41 0
-15 -23 -34 -41 0
-15 -30 -34 -41 0
-23 -30 -34 -41 0
-1 -12 -13 -23 0
-1 -12 -13 -28 0
-1 -12 -13 -33 0
-1 -12 -13 -38 0
-1 -12 -23 -28 0
-1 -12 -23 -33 0
-1 -12 -23 -38 0
-1 -12 -28 -33 0
-1 -12 -28 -38 0
-1 -12 -33 -38 0
-1 -13 -23 -28 0
-1 -13 -23 -33 0
-1 -13 -23 -38 0
-1 -13 -28 -33 0
-1 -13 -28 -38 0
-1 -13 -33 -38 0
-1 -23 -28 -33 0
-1 -23 -28 -38 0
-1 -23 -33 -38 0
-1 -28 -33 -38 0
-12 -13 -23 -28 0
-12 -13 -23 -33 0
-12 -13 -23 -38 0
-12 -13 -28 -33 0
-12 -13 -28 -38 0
-12 -13 -33 -38 0
-12 -23 -28 -33 0
-12 -23 -28 -38 0
-12 -23 -33 -38 0
-12 -28 -33 -38 0
-13 -23 -28 -33 0
-13 -23 -28 -38 0
-13 -23 -33 -38 0
-13 -28 -33 -38 0
-23 -28 -33 -38 0
-2 -7 -14 -24 0
-2 -7 -14 -29 0
-2 -7 -14 -34 0
-2 -7 -14 -37 0
-2 -7 -24 -29 0
-2 -7 -24 -34 0
-2 -7 -24 -37 0
-2 -7 -29 -34 0
-2 -7 -29 -37 0
-2 -7 -34 -37 0
-2 -14 -24 -29 0
-2 -14 -24 -34 0
-2 -14 -24 -37 0
-2 -14 -29 -34 0
-2 -14 -29 -37 0
-2 -14 -34 -37 0
-2 -24 -29 -34 0
-2 -24 -29 -37 0
-2 -24 -34 -37 0
-2 -29 -34 -37 0
-7 -14 -24 -29 0
-7 -14 -24 -34 0
-7 -14 -24 -37 0
-7 -14 -29 -34 0
-7 -14 -29 -37 0
-7 -14 -34 -37 0
-7 -24 -29 -34 0
-7 -24 -29 -37 0
-7 -24 -34 -37 0
-7 -29 -34 -37 0
-14 -24 -29 -34 0
-14 -24 -29 -37 0
-14 -24 -34 -37 0
-14 -29 -34 -37 0
-24 -29 -34 -37 0
-3 -8 -15 -19 0
-3 -8 -15 -30 0
-3 -8 -15 -35 0
-3 -8 -15 -40 0
-3 -8 -19 -30 0
-3 -8 -19 -35 0
-3 -8 -19 -40 0
-3 -8 -30 -35 0
-3 -8 -30 -40 0
-3 -8 -35 -40 0
-3 -15 -19 -30 0
-3 -15 -19 -35 0
-3 -15 -19 -40 0
-3 -15 -30 -35 0
-3 -15 -30 -40 0
-3 -15 -35 -40 0
-3 -19 -30 -35 0
-3 -19 -30 -40 0
-3 -19 -35 -40 0
-3 -30 -35 -40 0
-8 -15 -19 -30 0
-8 -15 -19 -35 0
-8 -15 -19 -40 0
-8 -15 -30 -35 0
-8 -15 -30 -40 0
-8 -15 -35 -40 0
-8 -19 -30 -35 0
-8 -19 -30 -40 0
-8 -19 -35 -40 0
-8 -30 -35 -40 0
-15 -19 -30 -35 0
-15 -19 -30 -40 0
-15 -19 -35 -40 0
-15 -30 -35 -40 0
-19 -30 -35 -40 0
-4 -9 -16 -20 0
-4 -9 -16 -25 0
-4 -9 -16 -36 0
-4 -9 -16 -41 0
-4 -9 -20 -25 0
-4 -9 -20 -36 0
-4 -9 -20 -41 0
-4 -9 -25 -36 0
-4 -9 -25 -41 0
-4 -9 -36 -41 0
-4 -16 -20 -25 0
-4 -16 -20 -36 0
-4 -16 -20 -41 0
-4 -16 -25 -36 0
-4 -16 -25 -41 0
-4 -16 -36 -41 0
-4 -20 -25 -36 0
-4 -20 -25 -41 0
-4 -20 -36 -41 0
-4 -25 -36 -41 0
-9 -16 -20 -25 0
-9 -16 -20 -36 0
-9 -16 -20 -41 0
-9 -16 -25 -36 0
-9 -16 -25 -41 0
-9 -16 -36 -41 0
-9 -20 -25 -36 0
-9 -20 -25 -41 0
-9 -20 -36 -41 0
-9 -25 -36 -41 0
-16 -20 -25 -36 0
-16 -20 -25 -41 0
-16 -20 -36 -41 0
-16 -25 -36 -41 0
-20 -25 -36 -41 0
-5 -11 -17 -21 0
-5 -11 -17 -26 0
-5 -11 -17 -31 0
-5 -11 -17 -42 0
-5 -11 -21 -26 0
-5 -11 -21 -31 0
-5 -11 -21 -42 0
-5 -11 -26 -31 0
-5 -11 -26 -42 0
-5 -11 -31 -42 0
-5 -17 -21 -26 0
-5 -17 -21 -31 0
-5 -17 -21 -42 0
-5 -17 -26 -31 0
-5 -17 -26 -42 0
-5 -17 -31 -42 0
-5 -21 -26 -31 0
-5 -21 -26 -42 0
-5 -21 -31 -42 0
-5 -26 -31 -42 0
-11 -17 -21 -26 0
-11 -17 -21 -31 0
-11 -17 -21 -42 0
-11 -17 -26 -31 0
-11 -17 -26 -42 0
-11 -17 -31 -42 0
-11 -21 -26 -31 0
-11 -21 -26 -42 0
-11 -21 -31 -42 0
-11 -26 -31 -42 0
-17 -21 -26 -31 0
-17 -21 -26 -42 0
-17 -21 -31 -42 0
-17 -26 -31 -42 0
-21 -26 -31 -42 0
-6 -11 -18 -22 0
-6 -11 -18 -27 0
-6 -11 -18 -32 0
-6 -11 -18 -37 0
-6 -11 -22 -27 0
-6 -11 -22 -32 0
-6 -11 -22 -37 0
-6 -11 -27 -32 0
-6 -11 -27 -37 0
-6 -11 -32 -37 0
-6 -18 -22 -27 0
-6 -18 -22 -32 0
-6 -18 -22 -37 0
-6 -18 -27 -32 0
-6 -18 -27 -37 0
-6 -18 -32 -37 0
-6 -22 -27 -32 0
-6 -22 -27 -37 0
-6 -22 -32 -37 0
-6 -27 -32 -37 0
-11 -18 -22 -27 0
-11 -18 -22 -32 0
-11 -18 -22 -37 0
-11 -18 -27 -32 0
-11 -18 -27 -37 0
-11 -18 -32 -37 0
-11 -22 -27 -32 0
-11 -22 -27 -37 0
-11 -22 -32 -37 0
-11 -27 -32 -37 0
-18 -22 -27 -32 0
-18 -22 -27 -37 0
-18 -22 -32 -37 0
-18 -27 -32 -37 0
-22 -27 -32 -37 0
-1 -7 -13 -20 0
-1 -7 -13 -29 0
-1 -7 -13 -31 0
-1 -7 -13 -39 0
-1 -7 -20 -29 0
-1 -7 -20 -31 0
-1 -7 -20 -39 0
-1 -7 -29 -31 0
-1 -7 -29 -39 0
-1 -7 -31 -39 0
-1 -13 -20 -29 0
-1 -13 -20 -31 0
-1 -13 -20 -39 0
-1 -13 -29 -31 0
-1 -13 -29 -39 0
-1 -13 -31 -39 0
-1 -20 -29 -31 0
-1 -20 -29 -39 0
-1 -20 -31 -39 0
-1 -29 -31 -39 0
-7 -13 -20 -29 0
-7 -13 -20 -31 0
-7 -13 -20 -39 0
-7 -13 -29 -31 0
-7 -13 -29 -39 0
-7 -13 -31 -39 0
-7 -20 -29 -31 0
-7 -20 -29 -39 0
-7 -20 -31 -39 0
-7 -29 -31 -39 0
-13 -20 -29 -31 0
-13 -20 -29 -39 0
-13 -20 -31 -39 0
-13 -29 -31 -39 0
-20 -29 -31 -39 0
-2 -8 -14 -21 0
-2 -8 -14 -30 0
-2 -8 -14 -32 0
-2 -8 -14 -40 0
-2 -8 -21 -30 0
-2 -8 -21 -32 0
-2 -8 -21 -40 0
-2 -8 -30 -32 0
-2 -8 -30 -40 0
-2 -8 -32 -40 0
-2 -14 -21 -30 0
-2 -14 -21 -32 0
-2 -14 -21 -40 0
-2 -14 -30 -32 0
-2 -14 -30 -40 0
-2 -14 -32 -40 0
-2 -21 -30 -32 0
-2 -21 -30 -40 0
-2 -21 -32 -40 0
-2 -30 -32 -40 0
-8 -14 -21 -30 0
-8 -14 -21 -32 0
-8 -14 -21 -40 0
-8 -14 -30 -32 0
-8 -14 -30 -40 0
-8 -14 -32 -40 0
-8 -21 -30 -32 0
-8 -21 -30 -40 0
-8 -21 -32 -40 0
-8 -30 -32 -40 0
-14 -21 -30 -32 0
-14 -21 -30 -40 0
-14 -21 -32 -40 0
-14 -30 -32 -40 0
-21 -30 -32 -40 0
-3 -9 -15 -22 0
-3 -9 -15 -25 0
-3 -9 -15 -33 0
-3 -9 -15 -41 0
-3 -9 -22 -25 0
-3 -9 -22 -33 0
-3 -9 -22 -41 0
-3 -9 -25 -33 0
-3 -9 -25 -41 0
-3 -9 -33 -41 0
-3 -15 -22 -25 0
-3 -15 -22 -33 0
-3 -15 -22 -41 0
-3 -15 -25 -33 0
-3 -15 -25 -41 0
-3 -15 -33 -41 0
-3 -22 -25 -33 0
-3 -22 -25 -41 0
-3 -22 -33 -41 0
-3 -25 -33 -41 0
-9 -15 -22 -25 0
-9 -15 -22 -33 0
-9 -15 -22 -41 0
-9 -15 -25 -33 0
-9 -15 -25 -41 0
-9 -15 -33 -41 0
-9 -22 -25 -33 0
-9 -22 -25 -41 0
-9 -22 -33 -41 0
-9 -25 -33 -41 0
-15 -22 -25 -33 0
-15 -22 -25 -41 0
-15 -22 -33 -41 0
-15 -25 -33 -41 0
-22 -25 -33 -41 0
-4 -10 -16 -23 0
-4 -10 -16 -26 0
-4 -10 -16 -34 0
-4 -10 -16 -42 0
-4 -10 -23 -26 0
-4 -10 -23 -34 0
-4 -10 -23 -42 0
-4 -10 -26 -34 0
-4 -10 -26 -42 0
-4 -10 -34 -42 0
-4 -16 -23 -26 0
-4 -16 -23 -34 0
-4 -16 -23 -42 0
-4 -16 -26 -34 0
-4 -16 -26 -42 0
-4 -16 -34 -42 0
-4 -23 -26 -34 0
-4 -23 -26 -42 0
-4 -23 -34 -42 0
-4 -26 -34 -42 0
-10 -16 -23 -26 0
-10 -16 -23 -34 0
-10 -16 -23 -42 0
-10 -16 -26 -34 0
-10 -16 -26 -42 0
-10 -16 -34 -42 0
-10 -23 -26 -34 0
-10 -23 -26 -42 0
-10 -23 -34 -42 0
-10 -26 -34 -42 0
-16 -23 -26 -34 0
-16 -23 -26 -42 0
-16 -23 -34 -42 0
-16 -26 -34 -42 0
-23 -26 -34 -42 0
-5 -11 -17 -24 0
-5 -11 -17 -27 0
-5 -11 -17 -35 0
-5 -11 -17 -37 0
-5 -11 -24 -27 0
-5 -11 -24 -35 0
-5 -11 -24 -37 0
-5 -11 -27 -35 0
-5 -11 -27 -37 0
-5 -11 -35 -37 0
-5 -17 -24 -27 0
-5 -17 -24 -35 0
-5 -17 -24 -37 0
-5 -17 -27 -35 0
-5 -17 -27 -37 0
-5 -17 -35 -37 0
-5 -24 -27 -35 0
-5 -24 -27 -37 0
-5 -24 -35 -37 0
-5 -27 -35 -37 0
-11 -17 -24 -27 0
-11 -17 -24 -35 0
-11 -17 -24 -37 0
-11 -17 -27 -35 0
-11 -17 -27 -37 0
-11 -17 -35 -37 0
-11 -24 -27 -35 0
-11 -24 -27 -37 0
-11 -24 -35 -37 0
-11 -27 -35 -37 0
-17 -24 -27 -35 0
-17 -24 -27 -37 0
-17 -24 -35 -37 0
-17 -27 -35 -37 0
-24 -27 -35 -37 0
-6 -12 -18 -19 0
-6 -12 -18 -28 0
-6 -12 -18 -36 0
-6 -12 -18 -38 0
-6 -12 -19 -28 0
-6 -12 -19 -36 0
-6 -12 -19 -38 0
-6 -12 -28 -36 0
-6 -12 -28 -38 0
-6 -12 -36 -38 0
-6 -18 -19 -28 0
-6 -18 -19 -36 0
-6 -18 -19 -38 0
-6 -18 -28 -36 0
-6 -18 -28 -38 0
-6 -18 -36 -38 0
-6 -19 -28 -36 0
-6 -19 -28 -38 0
-6 -19 -36 -38 0
-6 -28 -36 -38 0
-12 -18 -19 -28 0
-12 -18 -19 -36 0
-12 -18 -19 -38 0
-12 -18 -28 -36 0
-12 -18 -28 -38 0
-12 -18 -36 -38 0
-12 -19 -28 -36 0
-12 -19 -28 -38 0
-12 -19 -36 -38 0
-12 -28 -36 -38 0
-18 -19 -28 -36 0
-18 -19 -28 -38 0
-18 -19 -36 -38 0
-18 -28 -36 -38 0
-19 -28 -36 -38 0
-1 -7 -17 -21 0
-1 -7 -17 -29 0
-1 -7 -17 -33 0
-1 -7 -17 -41 0
-1 -7 -21 -29 0
-1 -7 -21 -33 0
-1 -7 -21 -41 0
-1 -7 -29 -33 0
-1 -7 -29 -41 0
-1 -7 -33 -41 0
-1 -17 -21 -29 0
-1 -17 -21 -33 0
-1 -17 -21 -41 0
-1 -17 -29 -33 0
-1 -17 -29 -41 0
-1 -17 -33 -41 0
-1 -21 -29 -33 0
-1 -21 -29 -41 0
-1 -21 -33 -41 0
-1 -29 -33 -41 0
-7 -17 -21 -29 0
-7 -17 -21 -33 0
-7 -17 -21 -41 0
-7 -17 -29 -33 0
-7 -17 -29 -41 0
-7 -17 -33 -41 0
-7 -21 -29 -33 0
-7 -21 -29 -41 0
-7 -21 -33 -41 0
-7 -29 -33 -41 0
-17 -21 -29 -33 0
-17 -21 -29 -41 0
-17 -21 -33 -41 0
-17 -29 -33 -41 0
-21 -29 -33 -41 0
-2 -8 -18 -22 0
-2 -8 -18 -30 0
-2 -8 -18 -34 0
-2 -8 -18 -42 0
-2 -8 -22 -30 0
-2 -8 -22 -34 0
-2 -8 -22 -42 0
-2 -8 -30 -34 0
-2 -8 -30 -42 0
-2 -8 -34 -42 0
-2 -18 -22 -30 0
-2 -18 -22 -34 0
-2 -18 -22 -42 0
-2 -18 -30 -34 0
-2 -18 -30 -42 0
-2 -18 -34 -42 0
-2 -22 -30 -34 0
-2 -22 -30 -42 0
-2 -22 -34 -42 0
-2 -30 -34 -42 0
-8 -18 -22 -30 0
-8 -18 -22 -34 0
-8 -18 -22 -42 0
-8 -18 -30 -34 0
-8 -18 -30 -42 0
-8 -18 -34 -42 0
-8 -22 -30 -34 0
-8 -22 -30 -42 0
-8 -22 -34 -42 0
-8 -30 -34 -42 0
-18 -22 -30 -34 0
-18 -22 -30 -42 0
-18 -22 -34 -42 0
-18 -30 -34 -42 0
-22 -30 -34 -42 0
-3 -9 -13 -23 0
-3 -9 -13 -25 0
-3 -9 -13 -35 0
-3 -9 -13 -37 0
-3 -9 -23 -25 0
-3 -9 -23 -35 0
-3 -9 -23 -37 0
-3 -9 -25 -35 0
-3 -9 -25 -37 0
-3 -9 -35 -37 0
-3 -13 -23 -25 0
-3 -13 -23 -35 0
-3 -13 -23 -37 0
-3 -13 -25 -35 0
-3 -13 -25 -37 0
-3 -13 -35 -37 0
-3 -23 -25 -35 0
-3 -23 -25 -37 0
-3 -23 -35 -37 0
-3 -25 -35 -37 0
-9 -13 -23 -25 0
-9 -13 -23 -35 0
-9 -13 -23 -37 0
-9 -13 -25 -35 0
-9 -13 -25 -37 0
-9 -13 -35 -37 0
-9 -23 -25 -35 0
-9 -23 -25 -37 0
-9 -23 -35 -37 0
-9 -25 -35 -37 0
-13 -23 -25 -35 0
-13 -23 -25 -37 0
-13 -23 -35 -37 0
-13 -25 -35 -37 0
-23 -25 -35 -37 0
-4 -10 -14 -24 0
-4 -10 -14 -26 0
-4 -10 -14 -36 0
-4 -10 -14 -38 0
-4 -10 -24 -26 0
-4 -10 -24 -36 0
-4 -10 -24 -38 0
-4 -10 -26 -36 0
-4 -10 -26 -38 0
-4 -10 -36 -38 0
-4 -14 -24 -26 0
-4 -14 -24 -36 0
-4 -14 -24 -38 0
-4 -14 -26 -36 0
-4 -14 -26 -38 0
-4 -14 -36 -38 0
-4 -24 -26 -36 0
-4 -24 -26 -38 0
-4 -24 -36 -38 0
-4 -26 -36 -38 0
-10 -14 -24 -26 0
-10 -14 -24 -36 0
-10 -14 -24 -38 0
-10 -14 -26 -36 0
-10 -14 -26 -38 0
-10 -14 -36 -38 0
-10 -24 -26 -36 0
-10 -24 -26 -38 0
-10 -24 -36 -38 0
-10 -26 -36 -38 0
-14 -24 -26 -36 0
-14 -24 -26 -38 0
-14 -24 -36 -38 0
-14 -26 -36 -38 0
-24 -26 -36 -38 0
-5 -11 -15 -19 0
-5 -11 -15 -27 0
-5 -11 -15 -31 0
-5 -11 -15 -39 0
-5 -11 -19 -27 0
-5 -11 -19 -31 0
-5 -11 -19 -39 0
-5 -11 -27 -31 0
-5 -11 -27 -39 0
-5 -11 -31 -39 0
-5 -15 -19 -27 0
-5 -15 -19 -31 0
-5 -15 -19 -39 0
-5 -15 -27 -31 0
-5 -15 -27 -39 0
-5 -15 -31 -39 0
-5 -19 -27 -31 0
-5 -19 -27 -39 0
-5 -19 -31 -39 0
-5 -27 -31 -39 0
-11 -15 -19 -27 0
-11 -15 -19 -31 0
-11 -15 -19 -39 0
-11 -15 -27 -31 0
-11 -15 -27 -39 0
-11 -15 -31 -39 0
-11 -19 -27 -31 0
-11 -19 -27 -39 0
-11 -19 -31 -39 0
-11 -27 -31 -39 0
-15 -19 -27 -31 0
-15 -19 -27 -39 0
-15 -19 -31 -39 0
-15 -27 -31 -39 0
-19 -27 -31 -39 0
-6 -12 -16 -20 0
-6 -12 -16 -28 0
-6 -12 -16 -32 0
-6 -12 -16 -40 0
-6 -12 -20 -28 0
-6 -12 -20 -32 0
-6 -12 -20 -40 0
-6 -12 -28 -32 0
-6 -12 -28 -40 0
-6 -12 -32 -40 0
-6 -16 -20 -28 0
-6 -16 -20 -32 0
-6 -16 -20 -40 0
-6 -16 -28 -32 0
-6 -16 -28 -40 0
-6 -16 -32 -40 0
-6 -20 -28 -32 0
-6 -20 -28 -40 0
-6 -20 -32 -40 0
-6 -28 -32 -40 0
-12 -16 -20 -28 0
-12 -16 -20 -32 0
-12 -16 -20 -40 0
-12 -16 -28 -32 0
-12 -16 -28 -40 0
-12 -16 -32 -40 0
-12 -20 -28 -32 0
-12 -20 -28 -40 0
-12 -20 -32 -40 0
-12 -28 -32 -40 0
-16 -20 -28 -32 0
-16 -20 -28 -40 0
-16 -20 -32 -40 0
-16 -28 -32 -40 0
-20 -28 -32 -40 0
-1 -7 -18 -24 0
-1 -7 -18 -30 0
-1 -7 -18 -33 0
-1 -7 -18 -40 0
-1 -7 -24 -30 0
-1 -7 -24 -33 0
-1 -7 -24 -40 0
-1 -7 -30 -33 0
-1 -7 -30 -40 0
-1 -7 -33 -40 0
-1 -18 -24 -30 0
-1 -18 -24 -33 0
-1 -18 -24 -40 0
-1 -18 -30 -33 0
-1 -18 -30 -40 0
-1 -18 -33 -40 0
-1 -24 -30 -33 0
-1 -24 -30 -40 0
-1 -24 -33 -40 0
-1 -30 -33 -40 0
-7 -18 -24 -30 0
-7 -18 -24 -33 0
-7 -18 -24 -40 0
-7 -18 -30 -33 0
-7 -18 -30 -40 0
-7 -18 -33 -40 0
-7 -24 -30 -33 0
-7 -24 -30 -40 0
-7 -24 -33 -40 0
-7 -30 -33 -40 0
-18 -24 -30 -33 0
-18 -24 -30 -40 0
-18 -24 -33 -40 0
-18 -30 -33 -40 0
-24 -30 -33 -40 0
-2 -8 -13 -19 0
-2 -8 -13 -25 0
-2 -8 -13 -34 0
-2 -8 -13 -41 0
-2 -8 -19 -25 0
-2 -8 -19 -34 0
-2 -8 -19 -41 0
-2 -8 -25 -34 0
-2 -8 -25 -41 0
-2 -8 -34 -41 0
-2 -13 -19 -25 0
-2 -13 -19 -34 0
-2 -13 -19 -41 0
-2 -13 -25 -34 0
-2 -13 -25 -41 0
-2 -13 -34 -41 0
-2 -19 -25 -34 0
-2 -19 -25 -41 0
-2 -19 -34 -41 0
-2 -25 -34 -41 0
-8 -13 -19 -25 0
-8 -13 -19 -34 0
-8 -13 -19 -41 0
-8 -13 -25 -34 0
-8 -13 -25 -41 0
-8 -13 -34 -41 0
-8 -19 -25 -34 0
-8 -19 -25 -41 0
-8 -19 -34 -41 0
-8 -25 -34 -41 0
-13 -19 -25 -34 0
-13 -19 -25 -41 0
-13 -19 -34 -41 0
-13 -25 -34 -41 0
-19 -25 -34 -41 0
-3 -9 -14 -20 0
-3 -9 -14 -26 0
-3 -9 -14 -35 0
-3 -9 -14 -42 0
-3 -9 -20 -26 0
-3 -9 -20 -35 0
-3 -9 -20 -42 0
-3 -9 -26 -35 0
-3 -9 -26 -42 0
-3 -9 -35 -42 0
-3 -14 -20 -26 0
-3 -14 -20 -35 0
-3 -14 -20 -42 0
-3 -14 -26 -35 0
-3 -14 -26 -42 0
-3 -14 -35 -42 0
-3 -20 -26 -35 0
-3 -20 -26 -42 0
-3 -20 -35 -42 0
-3 -26 -35 -42 0
-9 -14 -20 -26 0
-9 -14 -20 -35 0
-9 -14 -20 -42 0
-9 -14 -26 -35 0
-9 -14 -26 -42 0
-9 -14 -35 -42 0
-9 -20 -26 -35 0
-9 -20 -26 -42 0
-9 -20 -35 -42 0
-9 -26 -35 -42 0
-14 -20 -26 -35 0
-14 -20 -26 -42 0
-14 -20 -35 -42 0
-14 -26 -35 -42 0
-20 -26 -35 -42 0
-4 -10 -15 -21 0
-4 -10 -15 -27 0
-4 -10 -15 -36 0
-4 -10 -15 -37 0
-4 -10 -21 -27 0
-4 -10 -21 -36 0
-4 -10 -21 -37 0
-4 -10 -27 -36 0
-4 -10 -27 -37 0
-4 -10 -36 -37 0
-4 -15 -21 -27 0
-4 -15 -21 -36 0
-4 -15 -21 -37 0
-4 -15 -27 -36 0
-4 -15 -27 -37 0
-4 -15 -36 -37 0
-4 -21 -27 -36 0
-4 -21 -27 -37 0
-4 -21 -36 -37 0
-4 -27 -36 -37 0
-10 -15 -21 -27 0
-10 -15 -21 -36 0
-10 -15 -21 -37 0
-10 -15 -27 -36 0
-10 -15 -27 -37 0
-10 -15 -36 -37 0
-10 -21 -27 -36 0
-10 -21 -27 -37 0
-10 -21 -36 -37 0
-10 -27 -36 -37 0
-15 -21 -27 -36 0
-15 -21 -27 -37 0
-15 -21 -36 -37 0
-15 -27 -36 -37 0
-21 -27 -36 -37 0
-5 -11 -16 -22 0
-5 -11 -16 -28 0
-5 -11 -16 -31 0
-5 -11 -16 -38 0
-5 -11 -22 -28 0
-5 -11 -22 -31 0
-5 -11 -22 -38 0
-5 -11 -28 -31 0
-5 -11 -28 -38 0
-5 -11 -31 -38 0
-5 -16 -22 -28 0
-5 -16 -22 -31 0
-5 -16 -22 -38 0
-5 -16 -28 -31 0
-5 -16 -28 -38 0
-5 -16 -31 -38 0
-5 -22 -28 -31 0
-5 -22 -28 -38 0
-5 -22 -31 -38 0
-5 -28 -31 -38 0
-11 -16 -22 -28 0
-11 -16 -22 -31 0
-11 -16 -22 -38 0
-11 -16 -28 -31 0
-11 -16 -28 -38 0
-11 -16 -31 -38 0
-11 -22 -28 -31 0
-11 -22 -28 -38 0
-11 -22 -31 -38 0
-11 -28 -31 -38 0
-16 -22 -28 -31 0
-16 -22 -28 -38 0
-16 -22 -31 -38 0
-16 -28 -31 -38 0
-22 -28 -31 -38 0
-6 -12 -17 -23 0
-6 -12 -17 -29 0
-6 -12 -17 -32 0
-6 -12 -17 -39 0
-6 -12 -23 -29 0
-6 -12 -23 -32 0
-6 -12 -23 -39 0
-6 -12 -29 -32 0
-6 -12 -29 -39 0
-6 -12 -32 -39 0
-6 -17 -23 -29 0
-6 -17 -23 -32 0
-6 -17 -23 -39 0
-6 -17 -29 -32 0
-6 -17 -29 -39 0
-6 -17 -32 -39 0
-6 -23 -29 -32 0
-6 -23 -29 -39 0
-6 -23 -32 -39 0
-6 -29 -32 -39 0
-12 -17 -23 -29 0
-12 -17 -23 -32 0
-12 -17 -23 -39 0
-12 -17 -29 -32 0
-12 -17 -29 -39 0
-12 -17 -32 -39 0
-12 -23 -29 -32 0
-12 -23 -29 -39 0
-12 -23 -32 -39 0
-12 -29 -32 -39 0
-17 -23 -29 -32 0
-17 -23 -29 -39 0
-17 -23 -32 -39 0
-17 -29 -32 -39 0
-23 -29 -32 -39 0
-1 -12 -15 -19 0
-1 -12 -15 -27 0
-1 -12 -15 -36 0
-1 -12 -15 -39 0
-1 -12 -19 -27 0
-1 -12 -19 -36 0
-1 -12 -19 -39 0
-1 -12 -27 -36 0
-1 -12 -27 -39 0
-1 -12 -36 -39 0
-1 -15 -19 -27 0
-1 -15 -19 -36 0
-1 -15 -19 -39 0
-1 -15 -27 -36 0
-1 -15 -27 -39 0
-1 -15 -36 -39 0
-1 -19 -27 -36 0
-1 -19 -27 -39 0
-1 -19 -36 -39 0
-1 -27 -36 -39 0
-12 -15 -19 -27 0
-12 -15 -19 -36 0
-12 -15 -19 -39 0
-12 -15 -27 -36 0
-12 -15 -27 -39 0
-12 -15 -36 -39 0
-12 -19 -27 -36 0
-12 -19 -27 -39 0
-12 -19 -36 -39 0
-12 -27 -36 -39 0
-15 -19 -27 -36 0
-15 -19 -27 -39 0
-15 -19 -36 -39 0
-15 -27 -36 -39 0
-19 -27 -36 -39 0
-2 -7 -16 -20 0
-2 -7 -16 -28 0
-2 -7 -16 -31 0
-2 -7 -16 -40 0
-2 -7 -20 -28 0
-2 -7 -20 -31 0
-2 -7 -20 -40 0
-2 -7 -28 -31 0
-2 -7 -28 -40 0
-2 -7 -31 -40 0
-2 -16 -20 -28 0
-2 -16 -20 -31 0
-2 -16 -20 -40 0
-2 -16 -28 -31 0
-2 -16 -28 -40 0
-2 -16 -31 -40 0
-2 -20 -28 -31 0
-2 -20 -28 -40 0
-2 -20 -31 -40 0
-2 -28 -31 -40 0
-7 -16 -20 -28 0
-7 -16 -20 -31 0
-7 -16 -20 -40 0
-7 -16 -28 -31 0
-7 -16 -28 -40 0
-7 -16 -31 -40 0
-7 -20 -28 -31 0
-7 -20 -28 -40 0
-7 -20 -31 -40 0
-7 -28 -31 -40 0
-16 -20 -28 -31 0
-16 -20 -28 -40 0
-16 -20 -31 -40 0
-16 -28 -31 -40 0
-20 -28 -31 -40 0
-3 -8 -17 -21 0
-3 -8 -17 -29 0
-3 -8 -17 -32 0
-3 -8 -17 -41 0
-3 -8 -21 -29 0
-3 -8 -21 -32 0
-3 -8 -21 -41 0
-3 -8 -29 -32 0
-3 -8 -29 -41 0
-3 -8 -32 -41 0
-3 -17 -21 -29 0
-3 -17 -21 -32 0
-3 -17 -21 -41 0
-3 -17 -29 -32 0
-3 -17 -29 -41 0
-3 -17 -32 -41 0
-3 -21 -29 -32 0
-3 -21 -29 -41 0
-3 -21 -32 -41 0
-3 -29 -32 -41 0
-8 -17 -21 -29 0
-8 -17 -21 -32 0
-8 -17 -21 -41 0
-8 -17 -29 -32 0
-8 -17 -29 -41 0
-8 -17 -32 -41 0
-8 -21 -29 -32 0
-8 -21 -29 -41 0
-8 -21 -32 -41 0
-8 -29 -32 -41 0
-17 -21 -29 -32 0
-17 -21 -29 -41 0
-17 -21 -32 -41 0
-17 -29 -32 -41 0
-21 -29 -32 -41 0
-4 -9 -18 -22 0
-4 -9 -18 -30 0
-4 -9 -18 -33 0
-4 -9 -18 -42 0
-4 -9 -22 -30 0
-4 -9 -22 -33 0
-4 -9 -22 -42 0
-4 -9 -30 -33 0
-4 -9 -30 -42 0
-4 -9 -33 -42 0
-4 -18 -22 -30 0
-4 -18 -22 -33 0
-4 -18 -22 -42 0
-4 -18 -30 -33 0
-4 -18 -30 -42 0
-4 -18 -33 -42 0
-4 -22 -30 -33 0
-4 -22 -30 -42 0
-4 -22 -33 -42 0
-4 -30 -33 -42 0
-9 -18 -22 -30 0
-9 -18 -22 -33 0
-9 -18 -22 -42 0
-9 -18 -30 -33 0
-9 -18 -30 -42 0
-9 -18 -33 -42 0
-9 -22 -30 -33 0
-9 -22 -30 -42 0
-9 -22 -33 -42 0
-9 -30 -33 -42 0
-18 -22 -30 -33 0
-18 -22 -30 -42 0
-18 -22 -33 -42 0
-18 -30 -33 -42 0
-22 -30 -33 -42 0
-5 -10 -13 -23 0
-5 -10 -13 -25 0
-5 -10 -13 -34 0
-5 -10 -13 -37 0
-5 -10 -23 -25 0
-5 -10 -23 -34 0
-5 -10 -23 -37 0
-5 -10 -25 -34 0
-5 -10 -25 -37 0
-5 -10 -34 -37 0
-5 -13 -23 -25 0
-5 -13 -23 -34 0
-5 -13 -23 -37 0
-5 -13 -25 -34 0
-5 -13 -25 -37 0
-5 -13 -34 -37 0
-5 -23 -25 -34 0
-5 -23 -25 -37 0
-5 -23 -34 -37 0
-5 -25 -34 -37 0
-10 -13 -23 -25 0
-10 -13 -23 -34 0
-10 -13 -23 -37 0
-10 -13 -25 -34 0
-10 -13 -25 -37 0
-10 -13 -34 -37 0
-10 -23 -25 -34 0
-10 -23 -25 -37 0
-10 -23 -34 -37 0
-10 -25 -34 -37 0
-13 -23 -25 -34 0
-13 -23 -25 -37 0
-13 -23 -34 -37 0
-13 -25 -34 -37 0
-23 -25 -34 -37 0
-6 -11 -14 -24 0
-6 -11 -14 -26 0
-6 -11 -14 -35 0
-6 -11 -14 -38 0
-6 -11 -24 -26 0
-6 -11 -24 -35 0
-6 -11 -24 -38 0
-6 -11 -26 -35 0
-6 -11 -26 -38 0
-6 -11 -35 -38 0
-6 -14 -24 -26 0
-6 -14 -24 -35 0
-6 -14 -24 -38 0
-6 -14 -26 -35 0
-6 -14 -26 -38 0
-6 -14 -35 -38 0
-6 -24 -26 -35 0
-6 -24 -26 -38 0
-6 -24 -35 -38 0
-6 -26 -35 -38 0
-11 -14 -24 -26 0
-11 -14 -24 -35 0
-11 -14 -24 -38 0
-11 -14 -26 -35 0
-11 -14 -26 -38 0
-11 -14 -35 -38 0
-11 -24 -26 -35 0
-11 -24 -26 -38 0
-11 -24 -35 -38 0
-11 -26 -35 -38 0
-14 -24 -26 -35 0
-14 -24 -26 -38 0
-14 -24 -35 -38 0
-14 -26 -35 -38 0
-24 -26 -35 -38 0
-1 -10 -18 -21 0
-1 -10 -18 -25 0
-1 -10 -18 -33 0
-1 -10 -18 -39 0
-1 -10 -21 -25 0
-1 -10 -21 -33 0
-1 -10 -21 -39 0
-1 -10 -25 -33 0
-1 -10 -25 -39 0
-1 -10 -33 -39 0
-1 -18 -21 -25 0
-1 -18 -21 -33 0
-1 -18 -21 -39 0
-1 -18 -25 -33 0
-1 -18 -25 -39 0
-1 -18 -33 -39 0
-1 -21 -25 -33 0
-1 -21 -25 -39 0
-1 -21 -33 -39 0
-1 -25 -33 -39 0
-10 -18 -21 -25 0
-10 -18 -21 -33 0
-10 -18 -21 -39 0
-10 -18 -25 -33 0
-10 -18 -25 -39 0
-10 -18 -33 -39 0
-10 -21 -25 -33 0
-10 -21 -25 -39 0
-10 -21 -33 -39 0
-10 -25 -33 -39 0
-18 -21 -25 -33 0
-18 -21 -25 -39 0
-18 -21 -33 -39 0
-18 -25 -33 -39 0
-21 -25 -33 -39 0
-2 -11 -13 -22 0
-2 -11 -13 -26 0
-2 -11 -13 -34 0
-2 -11 -13 -40 0
-2 -11 -22 -26 0
-2 -11 -22 -34 0
-2 -11 -22 -40 0
-2 -11 -26 -34 0
-2 -11 -26 -40 0
-2 -11 -34 -40 0
-2 -13 -22 -26 0
-2 -13 -22 -34 0
-2 -13 -22 -40 0
-2 -13 -26 -34 0
-2 -13 -26 -40 0
-2 -13 -34 -40 0
-2 -22 -26 -34 0
-2 -22 -26 -40 0
-2 -22 -34 -40 0
-2 -26 -34 -40 0
-11 -13 -22 -26 0
-11 -13 -22 -34 0
-11 -13 -22 -40 0
-11 -13 -26 -34 0
-11 -13 -26 -40 0
-11 -13 -34 -40 0
-11 -22 -26 -34 0
-11 -22 -26 -40 0
-11 -22 -34 -40 0
-11 -26 -34 -40 0
-13 -22 -26 -34 0
-13 -22 -26 -40 0
-13 -22 -34 -40 0
-13 -26 -34 -40 0
-22 -26 -34 -40 0
-3 -12 -14 -23 0
-3 -12 -14 -27 0
-3 -12 -14 -35 0
-3 -12 -14 -41 0
-3 -12 -23 -27 0
-3 -12 -23 -35 0
-3 -12 -23 -41 0
-3 -12 -27 -35 0
-3 -12 -27 -41 0
-3 -12 -35 -41 0
-3 -14 -23 -27 0
-3 -14 -23 -35 0
-3 -14 -23 -41 0
-3 -14 -27 -35 0
-3 -14 -27 -41 0
-3 -14 -35 -41 0
-3 -23 -27 -35 0
-3 -23 -27 -41 0
-3 -23 -35 -41 0
-3 -27 -35 -41 0
-12 -14 -23 -27 0
-12 -14 -23 -35 0
-12 -14 -23 -41 0
-12 -14 -27 -35 0
-12 -14 -27 -41 0
-12 -14 -35 -41 0
-12 -23 -27 -35 0
-12 -23 -27 -41 0
-12 -23 -35 -41 0
-12 -27 -35 -41 0
-14 -23 -27 -35 0
-14 -23 -27 -41 0
-14 -23 -35 -41 0
-14 -27 -35 -41 0
-23 -27 -35 -41 0
-4 -7 -15 -22 0
-4 -7 -15 -28 0
-4 -7 -15 -36 0
-4 -7 -15 -42 0
-4 -7 -22 -28 0
-4 -7 -22 -36 0
-4 -7 -22 -42 0
-4 -7 -28 -36 0
-4 -7 -28 -42 0
-4 -7 -36 -42 0
-4 -15 -22 -28 0
-4 -15 -22 -36 0
-4 -15 -22 -42 0
-4 -15 -28 -36 0
-4 -15 -28 -42 0
-4 -15 -36 -42 0
-4 -22 -28 -36 0
-4 -22 -28 -42 0
-4 -22 -36 -42 0
-4 -28 -36 -42 0
-7 -15 -22 -28 0
-7 -15 -22 -36 0
-7 -15 -22 -42 0
-7 -15 -28 -36 0
-7 -15 -28 -42 0
-7 -15 -36 -42 0
-7 -22 -28 -36 0
-7 -22 -28 -42 0
-7 -22 -36 -42 0
-7 -28 -36 -42 0
-15 -22 -28 -36 0
-15 -22 -28 -42 0
-15 -22 -36 -42 0
-15 -28 -36 -42 0
-22 -28 -36 -42 0
-5 -8 -16 -19 0
-5 -8 -16 -29 0
-5 -8 -16 -31 0
-5 -8 -16 -37 0
-5 -8 -19 -29 0
-5 -8 -19 -31 0
-5 -8 -19 -37 0
-5 -8 -29 -31 0
-5 -8 -29 -37 0
-5 -8 -31 -37 0
-5 -16 -19 -29 0
-5 -16 -19 -31 0
-5 -16 -19 -37 0
-5 -16 -29 -31 0
-5 -16 -29 -37 0
-5 -16 -31 -37 0
-5 -19 -29 -31 0
-5 -19 -29 -37 0
-5 -19 -31 -37 0
-5 -29 -31 -37 0
-8 -16 -19 -29 0
-8 -16 -19 -31 0
-8 -16 -19 -37 0
-8 -16 -29 -31 0
-8 -16 -29 -37 0
-8 -16 -31 -37 0
-8 -19 -29 -31 0
-8 -19 -29 -37 0
-8 -19 -31 -37 0
-8 -29 -31 -37 0
-16 -19 -29 -31 0
-16 -19 -29 -37 0
-16 -19 -31 -37 0
-16 -29 -31 -37 0
-19 -29 -31 -37 0
-6 -9 -17 -20 0
-6 -9 -17 -30 0
-6 -9 -17 -32 0
-6 -9 -17 -38 0
-6 -9 -20 -30 0
-6 -9 -20 -32 0
-6 -9 -20 -38 0
-6 -9 -30 -32 0
-6 -9 -30 -38 0
-6 -9 -32 -38 0
-6 -17 -20 -30 0
-6 -17 -20 -32 0
-6 -17 -20 -38 0
-6 -17 -30 -32 0
-6 -17 -30 -38 0
-6 -17 -32 -38 0
-6 -20 -30 -32 0
-6 -20 -30 -38 0
-6 -20 -32 -38 0
-6 -30 -32 -38 0
-9 -17 -20 -30 0
-9 -17 -20 -32 0
-9 -17 -20 -38 0
-9 -17 -30 -32 0
-9 -17 -30 -38 0
-9 -17 -32 -38 0
-9 -20 -30 -32 0
-9 -20 -30 -38 0
-9 -20 -32 -38 0
-9 -30 -32 -38 0
-17 -20 -30 -32 0
-17 -20 -30 -38 0
-17 -20 -32 -38 0
-17 -30 -32 -38 0
-20 -30 -32 -38 0
-1 -12 -18 -20 0
-1 -12 -18 -30 0
-1 -12 -18 -31 0
-1 -12 -18 -39 0
-1 -12 -20 -30 0
-1 -12 -20 -31 0
-1 -12 -20 -39 0
-1 -12 -30 -31 0
-1 -12 -30 -39 0
-1 -12 -31 -39 0
-1 -18 -20 -30 0
-1 -18 -20 -31 0
-1 -18 -20 -39 0
-1 -18 -30 -31 0
-1 -18 -30 -39 0
-1 -18 -31 -39 0
-1 -20 -30 -31 0
-1 -20 -30 -39 0
-1 -20 -31 -39 0
-1 -30 -31 -39 0
-12 -18 -20 -30 0
-12 -18 -20 -31 0
-12 -18 -20 -39 0
-12 -18 -30 -31 0
-12 -18 -30 -39 0
-12 -18 -31 -39 0
-12 -20 -30 -31 0
-12 -20 -30 -39 0
-12 -20 -31 -39 0
-12 -30 -31 -39 0
-18 -20 -30 -31 0
-18 -20 -30 -39 0
-18 -20 -31 -39 0
-18 -30 -31 -39 0
-20 -30 -31 -39 0
-2 -7 -13 -21 0
-2 -7 -13 -25 0
-2 -7 -13 -32 0
-2 -7 -13 -40 0
-2 -7 -21 -25 0
-2 -7 -21 -32 0
-2 -7 -21 -40 0
-2 -7 -25 -32 0
-2 -7 -25 -40 0
-2 -7 -32 -40 0
-2 -13 -21 -25 0
-2 -13 -21 -32 0
-2 -13 -21 -40 0
-2 -13 -25 -32 0
-2 -13 -25 -40 0
-2 -13 -32 -40 0
-2 -21 -25 -32 0
-2 -21 -25 -40 0
-2 -21 -32 -40 0
-2 -25 -32 -40 0
-7 -13 -21 -25 0
-7 -13 -21 -32 0
-7 -13 -21 -40 0
-7 -13 -25 -32 0
-7 -13 -25 -40 0
-7 -13 -32 -40 0
-7 -21 -25 -32 0
-7 -21 -25 -40 0
-7 -21 -32 -40 0
-7 -25 -32 -40 0
-13 -21 -25 -32 0
-13 -21 -25 -40 0
-13 -21 -32 -40 0
-13 -25 -32 -40 0
-21 -25 -32 -40 0
-3 -8 -14 -22 0
-3 -8 -14 -26 0
-3 -8 -14 -33 0
-3 -8 -14 -41 0
-3 -8 -22 -26 0
-3 -8 -22 -33 0
-3 -8 -22 -41 0
-3 -8 -26 -33 0
-3 -8 -26 -41 0
-3 -8 -33 -41 0
-3 -14 -22 -26 0
-3 -14 -22 -33 0
-3 -14 -22 -41 0
-3 -14 -26 -33 0
-3 -14 -26 -41 0
-3 -14 -33 -41 0
-3 -22 -26 -33 0
-3 -22 -26 -41 0
-3 -22 -33 -41 0
-3 -26 -33 -41 0
-8 -14 -22 -26 0
-8 -14 -22 -33 0
-8 -14 -22 -41 0
-8 -14 -26 -33 0
-8 -14 -26 -41 0
-8 -14 -33 -41 0
-8 -22 -26 -33 0
-8 -22 -26 -41 0
-8 -22 -33 -41 0
-8 -26 -33 -41 0
-14 -22 -26 -33 0
-14 -22 -26 -41 0
-14 -22 -33 -41 0
-14 -26 -33 -41 0
-22 -26 -33 -41 0
-4 -9 -15 -23 0
-4 -9 -15 -27 0
-4 -9 -15 -34 0
-4 -9 -15 -42 0
-4 -9 -23 -27 0
-4 -9 -23 -34 0
-4 -9 -23 -42 0
-4 -9 -27 -34 0
-4 -9 -27 -42 0
-4 -9 -34 -42 0
-4 -15 -23 -27 0
-4 -15 -23 -34 0
-4 -15 -23 -42 0
-4 -15 -27 -34 0
-4 -15 -27 -42 0
-4 -15 -34 -42 0
-4 -23 -27 -34 0
-4 -23 -27 -42 0
-4 -23 -34 -42 0
-4 -27 -34 -42 0
-9 -15 -23 -27 0
-9 -15 -23 -34 0
-9 -15 -23 -42 0
-9 -15 -27 -34 0
-9 -15 -27 -42 0
-9 -15 -34 -42 0
-9 -23 -27 -34 0
-9 -23 -27 -42 0
-9 -23 -34 -42 0
-9 -27 -34 -42 0
-15 -23 -27 -34 0
-15 -23 -27 -42 0
-15 -23 -34 -42 0
-15 -27 -34 -42 0
-23 -27 -34 -42 0
-5 -10 -16 -24 0
-5 -10 -16 -28 0
-5 -10 -16 -35 0
-5 -10 -16 -37 0
-5 -10 -24 -28 0
-5 -10 -24 -35 0
-5 -10 -24 -37 0
-5 -10 -28 -35 0
-5 -10 -28 -37 0
-5 -10 -35 -37 0
-5 -16 -24 -28 0
-5 -16 -24 -35 0
-5 -16 -24 -37 0
-5 -16 -28 -35 0
-5 -16 -28 -37 0
-5 -16 -35 -37 0
-5 -24 -28 -35 0
-5 -24 -28 -37 0
-5 -24 -35 -37 0
-5 -28 -35 -37 0
-10 -16 -24 -28 0
-10 -16 -24 -35 0
-10 -16 -24 -37 0
-10 -16 -28 -35 0
-10 -16 -28 -37 0
-10 -16 -35 -37 0
-10 -24 -28 -35 0
-10 -24 -28 -37 0
-10 -24 -35 -37 0
-10 -28 -35 -37 0
-16 -24 -28 -35 0
-16 -24 -28 -37 0
-16 -24 -35 -37 0
-16 -28 -35 -37 0
-24 -28 -35 -37 0
-6 -11 -17 -19 0
-6 -11 -17 -29 0
-6 -11 -17 -36 0
-6 -11 -17 -38 0
-6 -11 -19 -29 0
-6 -11 -19 -36 0
-6 -11 -19 -38 0
-6 -11 -29 -36 0
-6 -11 -29 -38 0
-6 -11 -36 -38 0
-6 -17 -19 -29 0
-6 -17 -19 -36 0
-6 -17 -19 -38 0
-6 -17 -29 -36 0
-6 -17 -29 -38 0
-6 -17 -36 -38 0
-6 -19 -29 -36 0
-6 -19 -29 -38 0
-6 -19 -36 -38 0
-6 -29 -36 -38 0
-11 -17 -19 -29 0
-11 -17 -19 -36 0
-11 -17 -19 -38 0
-11 -17 -29 -36 0
-11 -17 -29 -38 0
-11 -17 -36 -38 0
-11 -19 -29 -36 0
-11 -19 -29 -38 0
-11 -19 -36 -38 0
-11 -29 -36 -38 0
-17 -19 -29 -36 0
-17 -19 -29 -38 0
-17 -19 -36 -38 0
-17 -29 -36 -38 0
-19 -29 -36 -38 0
-1 -7 -14 -22 0
-1 -7 -14 -25 0
-1 -7 -14 -36 0
-1 -7 -14 -38 0
-1 -7 -22 -25 0
-1 -7 -22 -36 0
-1 -7 -22 -38 0
-1 -7 -25 -36 0
-1 -7 -25 -38 0
-1 -7 -36 -38 0
-1 -14 -22 -25 0
-1 -14 -22 -36 0
-1 -14 -22 -38 0
-1 -14 -25 -36 0
-1 -14 -25 -38 0
-1 -14 -36 -38 0
-1 -22 -25 -36 0
-1 -22 -25 -38 0
-1 -22 -36 -38 0
-1 -25 -36 -38 0
-7 -14 -22 -25 0
-7 -14 -22 -36 0
-7 -14 -22 -38 0
-7 -14 -25 -36 0
-7 -14 -25 -38 0
-7 -14 -36 -38 0
-7 -22 -25 -36 0
-7 -22 -25 -38 0
-7 -22 -36 -38 0
-7 -25 -36 -38 0
-14 -22 -25 -36 0
-14 -22 -25 -38 0
-14 -22 -36 -38 0
-14 -25 -36 -38 0
-22 -25 -36 -38 0
-2 -8 -15 -23 0
-2 -8 -15 -26 0
-2 -8 -15 -31 0
-2 -8 -15 -39 0
-2 -8 -23 -26 0
-2 -8 -23 -31 0
-2 -8 -23 -39 0
-2 -8 -26 -31 0
-2 -8 -26 -39 0
-2 -8 -31 -39 0
-2 -15 -23 -26 0
-2 -15 -23 -31 0
-2 -15 -23 -39 0
-2 -15 -26 -31 0
-2 -15 -26 -39 0
-2 -15 -31 -39 0
-2 -23 -26 -31 0
-2 -23 -26 -39 0
-2 -23 -31 -39 0
-2 -26 -31 -39 0
-8 -15 -23 -26 0
-8 -15 -23 -31 0
-8 -15 -23 -39 0
-8 -15 -26 -31 0
-8 -15 -26 -39 0
-8 -15 -31 -39 0
-8 -23 -26 -31 0
-8 -23 -26 -39 0
-8 -23 -31 -39 0
-8 -26 -31 -39 0
-15 -23 -26 -31 0
-15 -23 -26 -39 0
-15 -23 -31 -39 0
-15 -26 -31 -39 0
-23 -26 -31 -39 0
-3 -9 -16 -24 0
-3 -9 -16 -27 0
-3 -9 -16 -32 0
-3 -9 -16 -40 0
-3 -9 -24 -27 0
-3 -9 -24 -32 0
-3 -9 -24 -40 0
-3 -9 -27 -32 0
-3 -9 -27 -40 0
-3 -9 -32 -40 0
-3 -16 -24 -27 0
-3 -16 -24 -32 0
-3 -16 -24 -40 0
-3 -16 -27 -32 0
-3 -16 -27 -40 0
-3 -16 -32 -40 0
-3 -24 -27 -32 0
-3 -24 -27 -40 0
-3 -24 -32 -40 0
-3 -27 -32 -40 0
-9 -16 -24 -27 0
-9 -16 -24 -32 0
-9 -16 -24 -40 0
-9 -16 -27 -32 0
-9 -16 -27 -40 0
-9 -16 -32 -40 0
-9 -24 -27 -32 0
-9 -24 -27 -40 0
-9 -24 -32 -40 0
-9 -27 -32 -40 0
-16 -24 -27 -32 0
-16 -24 -27 -40 0
-16 -24 -32 -40 0
-16 -27 -32 -40 0
-24 -27 -32 -40 0
-4 -10 -17 -19 0
-4 -10 -17 -28 0
-4 -10 -17 -33 0
-4 -10 -17 -41 0
-4 -10 -19 -28 0
-4 -10 -19 -33 0
-4 -10 -19 -41 0
-4 -10 -28 -33 0
-4 -10 -28 -41 0
-4 -10 -33 -41 0
-4 -17 -19 -28 0
-4 -17 -19 -33 0
-4 -17 -19 -41 0
-4 -17 -28 -33 0
-4 -17 -28 -41 0
-4 -17 -33 -41 0
-4 -19 -28 -33 0
-4 -19 -28 -41 0
-4 -19 -33 -41 0
-4 -28 -33 -41 0
-10 -17 -19 -28 0
-10 -17 -19 -33 0
-10 -17 -19 -41 0
-10 -17 -28 -33 0
-10 -17 -28 -41 0
-10 -17 -33 -41 0
-10 -19 -28 -33 0
-10 -19 -28 -41 0
-10 -19 -33 -41 0
-10 -28 -33 -41 0
-17 -19 -28 -33 0
-17 -19 -28 -41 0
-17 -19 -33 -41 0
-17 -28 -33 -41 0
-19 -28 -33 -41 0
-5 -11 -18 -20 0
-5 -11 -18 -29 0
-5 -11 -18 -34 0
-5 -11 -18 -42 0
-5 -11 -20 -29 0
-5 -11 -20 -34 0
-5 -11 -20 -42 0
-5 -11 -29 -34 0
-5 -11 -29 -42 0
-5 -11 -34 -42 0
-5 -18 -20 -29 0
-5 -18 -20 -34 0
-5 -18 -20 -42 0
-5 -18 -29 -34 0
-5 -18 -29 -42 0
-5 -18 -34 -42 0
-5 -20 -29 -34 0
-5 -20 -29 -42 0
-5 -20 -34 -42 0
-5 -29 -34 -42 0
-11 -18 -20 -29 0
-11 -18 -20 -34 0
-11 -18 -20 -42 0
-11 -18 -29 -34 0
-11 -18 -29 -42 0
-11 -18 -34 -42 0
-11 -20 -29 -34 0
-11 -20 -29 -42 0
-11 -20 -34 -42 0
-11 -29 -34 -42 0
-18 -20 -29 -34 0
-18 -20 -29 -42 0
-18 -20 -34 -42 0
-18 -29 -34 -42 0
-20 -29 -34 -42 0
-6 -12 -13 -21 0
-6 -12 -13 -30 0
-6 -12 -13 -35 0
-6 -12 -13 -37 0
-6 -12 -21 -30 0
-6 -12 -21 -35 0
-6 -12 -21 -37 0
-6 -12 -30 -35 0
-6 -12 -30 -37 0
-6 -12 -35 -37 0
-6 -13 -21 -30 0
-6 -13 -21 -35 0
-6 -13 -21 -37 0
-6 -13 -30 -35 0
-6 -13 -30 -37 0
-6 -13 -35 -37 0
-6 -21 -30 -35 0
-6 -21 -30 -37 0
-6 -21 -35 -37 0
-6 -30 -35 -37 0
-12 -13 -21 -30 0
-12 -13 -21 -35 0
-12 -13 -21 -37 0
-12 -13 -30 -35 0
-12 -13 -30 -37 0
-12 -13 -35 -37 0
-12 -21 -30 -35 0
-12 -21 -30 -37 0
-12 -21 -35 -37 0
-12 -30 -35 -37 0
-13 -21 -30 -35 0
-13 -21 -30 -37 0
-13 -21 -35 -37 0
-13 -30 -35 -37 0
-21 -30 -35 -37 0
-1 -11 -18 -19 0
-1 -11 -18 -26 0
-1 -11 -18 -32 0
-1 -11 -18 -38 0
-1 -11 -19 -26 0
-1 -11 -19 -32 0
-1 -11 -19 -38 0
-1 -11 -26 -32 0
-1 -11 -26 -38 0
-1 -11 -32 -38 0
-1 -18 -19 -26 0
-1 -18 -19 -32 0
-1 -18 -19 -38 0
-1 -18 -26 -32 0
-1 -18 -26 -38 0
-1 -18 -32 -38 0
-1 -19 -26 -32 0
-1 -19 -26 -38 0
-1 -19 -32 -38 0
-1 -26 -32 -38 0
-11 -18 -19 -26 0
-11 -18 -19 -32 0
-11 -18 -19 -38 0
-11 -18 -26 -32 0
-11 -18 -26 -38 0
-11 -18 -32 -38 0
-11 -19 -26 -32 0
-11 -19 -26 -38 0
-11 -19 -32 -38 0
-11 -26 -32 -38 0
-18 -19 -26 -32 0
-18 -19 -26 -38 0
-18 -19 -32 -38 0
-18 -26 -32 -38 0
-19 -26 -32 -38 0
-2 -12 -13 -22 0
-2 -12 -13 -27 0
-2 -12 -13 -33 0
-2 -12 -13 -39 0
-2 -12 -22 -27 0
-2 -12 -22 -33 0
-2 -12 -22 -39 0
-2 -12 -27 -33 0
-2 -12 -27 -39 0
-2 -12 -33 -39 0
-2 -13 -22 -27 0
-2 -13 -22 -33 0
-2 -13 -22 -39 0
-2 -13 -27 -33 0
-2 -13 -27 -39 0
-2 -13 -33 -39 0
-2 -22 -27 -33 0
-2 -22 -27 -39 0
-2 -22 -33 -39 0
-2 -27 -33 -39 0
-12 -13 -22 -27 0
-12 -13 -22 -33 0
-12 -13 -22 -39 0
-12 -13 -27 -33 0
-12 -13 -27 -39 0
-12 -13 -33 -39 0
-12 -22 -27 -33 0
-12 -22 -27 -39 0
-12 -22 -33 -39 0
-12 -27 -33 -39 0
-13 -22 -27 -33 0
-13 -22 -27 -39 0
-13 -22 -33 -39 0
-13 -27 -33 -39 0
-22 -27 -33 -39 0
-3 -7 -14 -21 0
-3 -7 -14 -28 0
-3 -7 -14 -34 0
-3 -7 -14 -40 0
-3 -7 -21 -28 0
-3 -7 -21 -34 0
-3 -7 -21 -40 0
-3 -7 -28 -34 0
-3 -7 -28 -40 0
-3 -7 -34 -40 0
-3 -14 -21 -28 0
-3 -14 -21 -34 0
-3 -14 -21 -40 0
-3 -14 -28 -34 0
-3 -14 -28 -40 0
-3 -14 -34 -40 0
-3 -21 -28 -34 0
-3 -21 -28 -40 0
-3 -21 -34 -40 0
-3 -28 -34 -40 0
-7 -14 -21 -28 0
-7 -14 -21 -34 0
-7 -14 -21 -40 0
-7 -14 -28 -34 0
-7 -14 -28 -40 0
-7 -14 -34 -40 0
-7 -21 -28 -34 0
-7 -21 -28 -40 0
-7 -21 -34 -40 0
-7 -28 -34 -40 0
-14 -21 -28 -34 0
-14 -21 -28 -40 0
-14 -21 -34 -40 0
-14 -28 -34 -40 0
-21 -28 -34 -40 0
-4 -8 -15 -22 0
-4 -8 -15 -29 0
-4 -8 -15 -35 0
-4 -8 -15 -41 0
-4 -8 -22 -29 0
-4 -8 -22 -35 0
-4 -8 -22 -41 0
-4 -8 -29 -35 0
-4 -8 -29 -41 0
-4 -8 -35 -41 0
-4 -15 -22 -29 0
-4 -15 -22 -35 0
-4 -15 -22 -41 0
-4 -15 -29 -35 0
-4 -15 -29 -41 0
-4 -15 -35 -41 0
-4 -22 -29 -35 0
-4 -22 -29 -41 0
-4 -22 -35 -41 0
-4 -29 -35 -41 0
-8 -15 -22 -29 0
-8 -15 -22 -35 0
-8 -15 -22 -41 0
-8 -15 -29 -35 0
-8 -15 -29 -41 0
-8 -15 -35 -41 0
-8 -22 -29 -35 0
-8 -22 -29 -41 0
-8 -22 -35 -41 0
-8 -29 -35 -41 0
-15 -22 -29 -35 0
-15 -22 -29 -41 0
-15 -22 -35 -41 0
-15 -29 -35 -41 0
-22 -29 -35 -41 0
-5 -9 -16 -23 0
-5 -9 -16 -30 0
-5 -9 -16 -36 0
-5 -9 -16 -42 0
-5 -9 -23 -30 0
-5 -9 -23 -36 0
-5 -9 -23 -42 0
-5 -9 -30 -36 0
-5 -9 -30 -42 0
-5 -9 -36 -42 0
-5 -16 -23 -30 0
-5 -16 -23 -36 0
-5 -16 -23 -42 0
-5 -16 -30 -36 0
-5 -16 -30 -42 0
-5 -16 -36 -42 0
-5 -23 -30 -36 0
-5 -23 -30 -42 0
-5 -23 -36 -42 0
-5 -30 -36 -42 0
-9 -16 -23 -30 0
-9 -16 -23 -36 0
-9 -16 -23 -42 0
-9 -16 -30 -36 0
-9 -16 -30 -42 0
-9 -16 -36 -42 0
-9 -23 -30 -36 0
-9 -23 -30 -42 0
-9 -23 -36 -42 0
-9 -30 -36 -42 0
-16 -23 -30 -36 0
-16 -23 -30 -42 0
-16 -23 -36 -42 0
-16 -30 -36 -42 0
-23 -30 -36 -42 0
-6 -10 -17 -21 0
-6 -10 -17 -25 0
-6 -10 -17 -31 0
-6 -10 -17 -38 0
-6 -10 -21 -25 0
-6 -10 -21 -31 0
-6 -10 -21 -38 0
-6 -10 -25 -31 0
-6 -10 -25 -38 0
-6 -10 -31 -38 0
-6 -17 -21 -25 0
-6 -17 -21 -31 0
-6 -17 -21 -38 0
-6 -17 -25 -31 0
-6 -17 -25 -38 0
-6 -17 -31 -38 0
-6 -21 -25 -31 0
-6 -21 -25 -38 0
-6 -21 -31 -38 0
-6 -25 -31 -38 0
-10 -17 -21 -25 0
-10 -17 -21 -31 0
-10 -17 -21 -38 0
-10 -17 -25 -31 0
-10 -17 -25 -38 0
-10 -17 -31 -38 0
-10 -21 -25 -31 0
-10 -21 -25 -38 0
-10 -21 -31 -38 0
-10 -25 -31 -38 0
-17 -21 -25 -31 0
-17 -21 -25 -38 0
-17 -21 -31 -38 0
-17 -25 -31 -38 0
-21 -25 -31 -38 0
-1 -10 -14 -23 0
-1 -10 -14 -26 0
-1 -10 -14 -32 0
-1 -10 -14 -41 0
-1 -10 -23 -26 0
-1 -10 -23 -32 0
-1 -10 -23 -41 0
-1 -10 -26 -32 0
-1 -10 -26 -41 0
-1 -10 -32 -41 0
-1 -14 -23 -26 0
-1 -14 -23 -32 0
-1 -14 -23 -41 0
-1 -14 -26 -32 0
-1 -14 -26 -41 0
-1 -14 -32 -41 0
-1 -23 -26 -32 0
-1 -23 -26 -41 0
-1 -23 -32 -41 0
-1 -26 -32 -41 0
-10 -14 -23 -26 0
-10 -14 -23 -32 0
-10 -14 -23 -41 0
-10 -14 -26 -32 0
-10 -14 -26 -41 0
-10 -14 -32 -41 0
-10 -23 -26 -32 0
-10 -23 -26 -41 0
-10 -23 -32 -41 0
-10 -26 -32 -41 0
-14 -23 -26 -32 0
-14 -23 -26 -41 0
-14 -23 -32 -41 0
-14 -26 -32 -41 0
-23 -26 -32 -41 0
-2 -11 -15 -24 0
-2 -11 -15 -27 0
-2 -11 -15 -33 0
-2 -11 -15 -42 0
-2 -11 -24 -27 0
-2 -11 -24 -33 0
-2 -11 -24 -42 0
-2 -11 -27 -33 0
-2 -11 -27 -42 0
-2 -11 -33 -42 0
-2 -15 -24 -27 0
-2 -15 -24 -33 0
-2 -15 -24 -42 0
-2 -15 -27 -33 0
-2 -15 -27 -42 0
-2 -15 -33 -42 0
-2 -24 -27 -33 0
-2 -24 -27 -42 0
-2 -24 -33 -42 0
-2 -27 -33 -42 0
-11 -15 -24 -27 0
-11 -15 -24 -33 0
-11 -15 -24 -42 0
-11 -15 -27 -33 0
-11 -15 -27 -42 0
-11 -15 -33 -42 0
-11 -24 -27 -33 0
-11 -24 -27 -42 0
-11 -24 -33 -42 0
-11 -27 -33 -42 0
-15 -24 -27 -33 0
-15 -24 -27 -42 0
-15 -24 -33 -42 0
-15 -27 -33 -42 0
-24 -27 -33 -42 0
-3 -12 -16 -19 0
-3 -12 -16 -28 0
-3 -12 -16 -34 0
-3 -12 -16 -37 0
-3 -12 -19 -28 0
-3 -12 -19 -34 0
-3 -12 -19 -37 0
-3 -12 -28 -34 0
-3 -12 -28 -37 0
-3 -12 -34 -37 0
-3 -16 -19 -28 0
-3 -16 -19 -34 0
-3 -16 -19 -37 0
-3 -16 -28 -34 0
-3 -16 -28 -37 0
-3 -16 -34 -37 0
-3 -19 -28 -34 0
-3 -19 -28 -37 0
-3 -19 -34 -37 0
-3 -28 -34 -37 0
-12 -16 -19 -28 0
-12 -16 -19 -34 0
-12 -16 -19 -37 0
-12 -16 -28 -34 0
-12 -16 -28 -37 0
-12 -16 -34 -37 0
-12 -19 -28 -34 0
-12 -19 -28 -37 0
-12 -19 -34 -37 0
-12 -28 -34 -37 0
-16 -19 -28 -34 0
-16 -19 -28 -37 0
-16 -19 -34 -37 0
-16 -28 -34 -37 0
-19 -28 -34 -37 0
-4 -7 -17 -20 0
-4 -7 -17 -29 0
-4 -7 -17 -35 0
-4 -7 -17 -38 0
-4 -7 -20 -29 0
-4 -7 -20 -35 0
-4 -7 -20 -38 0
-4 -7 -29 -35 0
-4 -7 -29 -38 0
-4 -7 -35 -38 0
-4 -17 -20 -29 0
-4 -17 -20 -35 0
-4 -17 -20 -38 0
-4 -17 -29 -35 0
-4 -17 -29 -38 0
-4 -17 -35 -38 0
-4 -20 -29 -35 0
-4 -20 -29 -38 0
-4 -20 -35 -38 0
-4 -29 -35 -38 0
-7 -17 -20 -29 0
-7 -17 -20 -35 0
-7 -17 -20 -38 0
-7 -17 -29 -35 0
-7 -17 -29 -38 0
-7 -17 -35 -38 0
-7 -20 -29 -35 0
-7 -20 -29 -38 0
-7 -20 -35 -38 0
-7 -29 -35 -38 0
-17 -20 -29 -35 0
-17 -20 -29 -38 0
-17 -20 -35 -38 0
-17 -29 -35 -38 0
-20 -29 -35 -38 0
-5 -8 -18 -21 0
-5 -8 -18 -30 0
-5 -8 -18 -36 0
-5 -8 -18 -39 0
-5 -8 -21 -30 0
-5 -8 -21 -36 0
-5 -8 -21 -39 0
-5 -8 -30 -36 0
-5 -8 -30 -39 0
-5 -8 -36 -39 0
-5 -18 -21 -30 0
-5 -18 -21 -36 0
-5 -18 -21 -39 0
-5 -18 -30 -36 0
-5 -18 -30 -39 0
-5 -18 -36 -39 0
-5 -21 -30 -36 0
-5 -21 -30 -39 0
-5 -21 -36 -39 0
-5 -30 -36 -39 0
-8 -18 -21 -30 0
-8 -18 -21 -36 0
-8 -18 -21 -39 0
-8 -18 -30 -36 0
-8 -18 -30 -39 0
-8 -18 -36 -39 0
-8 -21 -30 -36 0
-8 -21 -30 -39 0
-8 -21 -36 -39 0
-8 -30 -36 -39 0
-18 -21 -30 -36 0
-18 -21 -30 -39 0
-18 -21 -36 -39 0
-18 -30 -36 -39 0
-21 -30 -36 -39 0
-6 -9 -13 -22 0
-6 -9 -13 -25 0
-6 -9 -13 -31 0
-6 -9 -13 -40 0
-6 -9 -22 -25 0
-6 -9 -22 -31 0
-6 -9 -22 -40 0
-6 -9 -25 -31 0
-6 -9 -25 -40 0
-6 -9 -31 -40 0
-6 -13 -22 -25 0
-6 -13 -22 -31 0
-6 -13 -22 -40 0
-6 -13 -25 -31 0
-6 -13 -25 -40 0
-6 -13 -31 -40 0
-6 -22 -25 -31 0
-6 -22 -25 -40 0
-6 -22 -31 -40 0
-6 -25 -31 -40 0
-9 -13 -22 -25 0
-9 -13 -22 -31 0
-9 -13 -22 -40 0
-9 -13 -25 -31 0
-9 -13 -25 -40 0
-9 -13 -31 -40 0
-9 -22 -25 -31 0
-9 -22 -25 -40 0
-9 -22 -31 -40 0
-9 -25 -31 -40 0
-13 -22 -25 -31 0
-13 -22 -25 -40 0
-13 -22 -31 -40 0
-13 -25 -31 -40 0
-22 -25 -31 -40 0
-1 -8 -13 -20 0
-1 -8 -13 -26 0
-1 -8 -13 -35 0
-1 -8 -13 -37 0
-1 -8 -20 -26 0
-1 -8 -20 -35 0
-1 -8 -20 -37 0
-1 -8 -26 -35 0
-1 -8 -26 -37 0
-1 -8 -35 -37 0
-1 -13 -20 -26 0
-1 -13 -20 -35 0
-1 -13 -20 -37 0
-1 -13 -26 -35 0
-1 -13 -26 -37 0
-1 -13 -35 -37 0
-1 -20 -26 -35 0
-1 -20 -26 -37 0
-1 -20 -35 -37 0
-1 -26 -35 -37 0
-8 -13 -20 -26 0
-8 -13 -20 -35 0
-8 -13 -20 -37 0
-8 -13 -26 -35 0
-8 -13 -26 -37 0
-8 -13 -35 -37 0
-8 -20 -26 -35 0
-8 -20 -26 -37 0
-8 -20 -35 -37 0
-8 -26 -35 -37 0
-13 -20 -26 -35 0
-13 -20 -26 -37 0
-13 -20 -35 -37 0
-13 -26 -35 -37 0
-20 -26 -35 -37 0
-2 -9 -14 -21 0
-2 -9 -14 -27 0
-2 -9 -14 -36 0
-2 -9 -14 -38 0
-2 -9 -21 -27 0
-2 -9 -21 -36 0
-2 -9 -21 -38 0
-2 -9 -27 -36 0
-2 -9 -27 -38 0
-2 -9 -36 -38 0
-2 -14 -21 -27 0
-2 -14 -21 -36 0
-2 -14 -21 -38 0
-2 -14 -27 -36 0
-2 -14 -27 -38 0
-2 -14 -36 -38 0
-2 -21 -27 -36 0
-2 -21 -27 -38 0
-2 -21 -36 -38 0
-2 -27 -36 -38 0
-9 -14 -21 -27 0
-9 -14 -21 -36 0
-9 -14 -21 -38 0
-9 -14 -27 -36 0
-9 -14 -27 -38 0
-9 -14 -36 -38 0
-9 -21 -27 -36 0
-9 -21 -27 -38 0
-9 -21 -36 -38 0
-9 -27 -36 -38 0
-14 -21 -27 -36 0
-14 -21 -27 -38 0
-14 -21 -36 -38 0
-14 -27 -36 -38 0
-21 -27 -36 -38 0
-3 -10 -15 -22 0
-3 -10 -15 -28 0
-3 -10 -15 -31 0
-3 -10 -15 -39 0
-3 -10 -22 -28 0
-3 -10 -22 -31 0
-3 -10 -22 -39 0
-3 -10 -28 -31 0
-3 -10 -28 -39 0
-3 -10 -31 -39 0
-3 -15 -22 -28 0
-3 -15 -22 -31 0
-3 -15 -22 -39 0
-3 -15 -28 -31 0
-3 -15 -28 -39 0
-3 -15 -31 -39 0
-3 -22 -28 -31 0
-3 -22 -28 -39 0
-3 -22 -31 -39 0
-3 -28 -31 -39 0
-10 -15 -22 -28 0
-10 -15 -22 -31 0
-10 -15 -22 -39 0
-10 -15 -28 -31 0
-10 -15 -28 -39 0
-10 -15 -31 -39 0
-10 -22 -28 -31 0
-10 -22 -28 -39 0
-10 -22 -31 -39 0
-10 -28 -31 -39 0
-15 -22 -28 -31 0
-15 -22 -28 -39 0
-15 -22 -31 -39 0
-15 -28 -31 -39 0
-22 -28 -31 -39 0
-4 -11 -16 -23 0
-4 -11 -16 -29 0
-4 -11 -16 -32 0
-4 -11 -16 -40 0
-4 -11 -23 -29 0
-4 -11 -23 -32 0
-4 -11 -23 -40 0
-4 -11 -29 -32 0
-4 -11 -29 -40 0
-4 -11 -32 -40 0
-4 -16 -23 -29 0
-4 -16 -23 -32 0
-4 -16 -23 -40 0
-4 -16 -29 -32 0
-4 -16 -29 -40 0
-4 -16 -32 -40 0
-4 -23 -29 -32 0
-4 -23 -29 -40 0
-4 -23 -32 -40 0
-4 -29 -32 -40 0
-11 -16 -23 -29 0
-11 -16 -23 -32 0
-11 -16 -23 -40 0
-11 -16 -29 -32 0
-11 -16 -29 -40 0
-11 -16 -32 -40 0
-11 -23 -29 -32 0
-11 -23 -29 -40 0
-11 -23 -32 -40 0
-11 -29 -32 -40 0
-16 -23 -29 -32 0
-16 -23 -29 -40 0
-16 -23 -32 -40 0
-16 -29 -32 -40 0
-23 -29 -32 -40 0
-5 -12 -17 -24 0
-5 -12 -17 -30 0
-5 -12 -17 -33 0
-5 -12 -17 -41 0
-5 -12 -24 -30 0
-5 -12 -24 -33 0
-5 -12 -24 -41 0
-5 -12 -30 -33 0
-5 -12 -30 -41 0
-5 -12 -33 -41 0
-5 -17 -24 -30 0
-5 -17 -24 -33 0
-5 -17 -24 -41 0
-5 -17 -30 -33 0
-5 -17 -30 -41 0
-5 -17 -33 -41 0
-5 -24 -30 -33 0
-5 -24 -30 -41 0
-5 -24 -33 -41 0
-5 -30 -33 -41 0
-12 -17 -24 -30 0
-12 -17 -24 -33 0
-12 -17 -24 -41 0
-12 -17 -30 -33 0
-12 -17 -30 -41 0
-12 -17 -33 -41 0
-12 -24 -30 -33 0
-12 -24 -30 -41 0
-12 -24 -33 -41 0
-12 -30 -33 -41 0
-17 -24 -30 -33 0
-17 -24 -30 -41 0
-17 -24 -33 -41 0
-17 -30 -33 -41 0
-24 -30 -33 -41 0
-6 -7 -18 -19 0
-6 -7 -18 -25 0
-6 -7 -18 -34 0
-6 -7 -18 -42 0
-6 -7 -19 -25 0
-6 -7 -19 -34 0
-6 -7 -19 -42 0
-6 -7 -25 -34 0
-6 -7 -25 -42 0
-6 -7 -34 -42 0
-6 -18 -19 -25 0
-6 -18 -19 -34 0
-6 -18 -19 -42 0
-6 -18 -25 -34 0
-6 -18 -25 -42 0
-6 -18 -34 -42 0
-6 -19 -25 -34 0
-6 -19 -25 -42 0
-6 -19 -34 -42 0
-6 -25 -34 -42 0
-7 -18 -19 -25 0
-7 -18 -19 -34 0
-7 -18 -19 -42 0
-7 -18 -25 -34 0
-7 -18 -25 -42 0
-7 -18 -34 -42 0
-7 -19 -25 -34 0
-7 -19 -25 -42 0
-7 -19 -34 -42 0
-7 -25 -34 -42 0
-18 -19 -25 -34 0
-18 -19 -25 -42 0
-18 -19 -34 -42 0
-18 -25 -34 -42 0
-19 -25 -34 -42 0
-1 -7 -16 -23 0
-1 -7 -16 -27 0
-1 -7 -16 -34 0
-1 -7 -16 -38 0
-1 -7 -23 -27 0
-1 -7 -23 -34 0
-1 -7 -23 -38 0
-1 -7 -27 -34 0
-1 -7 -27 -38 0
-1 -7 -34 -38 0
-1 -16 -23 -27 0
-1 -16 -23 -34 0
-1 -16 -23 -38 0
-1 -16 -27 -34 0
-1 -16 -27 -38 0
-1 -16 -34 -38 0
-1 -23 -27 -34 0
-1 -23 -27 -38 0
-1 -23 -34 -38 0
-1 -27 -34 -38 0
-7 -16 -23 -27 0
-7 -16 -23 -34 0
-7 -16 -23 -38 0
-7 -16 -27 -34 0
-7 -16 -27 -38 0
-7 -16 -34 -38 0
-7 -23 -27 -34 0
-7 -23 -27 -38 0
-7 -23 -34 -38 0
-7 -27 -34 -38 0
-16 -23 -27 -34 0
-16 -23 -27 -38 0
-16 -23 -34 -38 0
-16 -27 -34 -38 0
-23 -27 -34 -38 0
-2 -8 -17 -24 0
-2 -8 -17 -28 0
-2 -8 -17 -35 0
-2 -8 -17 -39 0
-2 -8 -24 -28 0
-2 -8 -24 -35 0
-2 -8 -24 -39 0
-2 -8 -28 -35 0
-2 -8 -28 -39 0
-2 -8 -35 -39 0
-2 -17 -24 -28 0
-2 -17 -24 -35 0
-2 -17 -24 -39 0
-2 -17 -28 -35 0
-2 -17 -28 -39 0
-2 -17 -35 -39 0
-2 -24 -28 -35 0
-2 -24 -28 -39 0
-2 -24 -35 -39 0
-2 -28 -35 -39 0
-8 -17 -24 -28 0
-8 -17 -24 -35 0
-8 -17 -24 -39 0
-8 -17 -28 -35 0
-8 -17 -28 -39 0
-8 -17 -35 -39 0
-8 -24 -28 -35 0
-8 -24 -28 -39 0
-8 -24 -35 -39 0
-8 -28 -35 -39 0
-17 -24 -28 -35 0
-17 -24 -28 -39 0
-17 -24 -35 -39 0
-17 -28 -35 -39 0
-24 -28 -35 -39 0
-3 -9 -18 -19 0
-3 -9 -18 -29 0
-3 -9 -18 -36 0
-3 -9 -18 -40 0
-3 -9 -19 -29 0
-3 -9 -19 -36 0
-3 -9 -19 -40 0
-3 -9 -29 -36 0
-3 -9 -29 -40 0
-3 -9 -36 -40 0
-3 -18 -19 -29 0
-3 -18 -19 -36 0
-3 -18 -19 -40 0
-3 -18 -29 -36 0
-3 -18 -29 -40 0
-3 -18 -36 -40 0
-3 -19 -29 -36 0
-3 -19 -29 -40 0
-3 -19 -36 -40 0
-3 -29 -36 -40 0
-9 -18 -19 -29 0
-9 -18 -19 -36 0
-9 -18 -19 -40 0
-9 -18 -29 -36 0
-9 -18 -29 -40 0
-9 -18 -36 -40 0
-9 -19 -29 -36 0
-9 -19 -29 -40 0
-9 -19 -36 -40 0
-9 -29 -36 -40 0
-18 -19 -29 -36 0
-18 -19 -29 -40 0
-18 -19 -36 -40 0
-18 -29 -36 -40 0
-19 -29 -36 -40 0
-4 -10 -13 -20 0
-4 -10 -13 -30 0
-4 -10 -13 -31 0
-4 -10 -13 -41 0
-4 -10 -20 -30 0
-4 -10 -20 -31 0
-4 -10 -20 -41 0
-4 -10 -30 -31 0
-4 -10 -30 -41 0
-4 -10 -31 -41 0
-4 -13 -20 -30 0
-4 -13 -20 -31 0
-4 -13 -20 -41 0
-4 -13 -30 -31 0
-4 -13 -30 -41 0
-4 -13 -31 -41 0
-4 -20 -30 -31 0
-4 -20 -30 -41 0
-4 -20 -31 -41 0
-4 -30 -31 -41 0
-10 -13 -20 -30 0
-10 -13 -20 -31 0
-10 -13 -20 -41 0
-10 -13 -30 -31 0
-10 -13 -30 -41 0
-10 -13 -31 -41 0
-10 -20 -30 -31 0
-10 -20 -30 -41 0
-10 -20 -31 -41 0
-10 -30 -31 -41 0
-13 -20 -30 -31 0
-13 -20 -30 -41 0
-13 -20 -31 -41 0
-13 -30 -31 -41 0
-20 -30 -31 -41 0
-5 -11 -14 -23 0
-5 -11 -14 -25 0
-5 -11 -14 -32 0
-5 -11 -14 -41 0
-5 -11 -23 -25 0
-5 -11 -23 -32 0
-5 -11 -23 -41 0
-5 -11 -25 -32 0
-5 -11 -25 -41 0
-5 -11 -32 -41 0
-5 -14 -23 -25 0
-5 -14 -23 -32 0
-5 -14 -23 -41 0
-5 -14 -25 -32 0
-5 -14 -25 -41 0
-5 -14 -32 -41 0
-5 -23 -25 -32 0
-5 -23 -25 -41 0
-5 -23 -32 -41 0
-5 -25 -32 -41 0
-11 -14 -23 -25 0
-11 -14 -23 -32 0
-11 -14 -23 -41 0
-11 -14 -25 -32 0
-11 -14 -25 -41 0
-11 -14 -32 -41 0
-11 -23 -25 -32 0
-11 -23 -25 -41 0
-11 -23 -32 -41 0
-11 -25 -32 -41 0
-14 -23 -25 -32 0
-14 -23 -25 -41 0
-14 -23 -32 -41 0
-14 -25 -32 -41 0
-23 -25 -32 -41 0
-2 -12 -15 -22 0
-2 -12 -15 -26 0
-2 -12 -15 -33 0
-2 -12 -15 -37 0
-2 -12 -22 -26 0
-2 -12 -22 -33 0
-2 -12 -22 -37 0
-2 -12 -26 -33 0
-2 -12 -26 -37 0
-2 -12 -33 -37 0
-2 -15 -22 -26 0
-2 -15 -22 -33 0
-2 -15 -22 -37 0
-2 -15 -26 -33 0
-2 -15 -26 -37 0
-2 -15 -33 -37 0
-2 -22 -26 -33 0
-2 -22 -26 -37 0
-2 -22 -33 -37 0
-2 -26 -33 -37 0
-12 -15 -22 -26 0
-12 -15 -22 -33 0
-12 -15 -22 -37 0
-12 -15 -26 -33 0
-12 -15 -26 -37 0
-12 -15 -33 -37 0
-12 -22 -26 -33 0
-12 -22 -26 -37 0
-12 -22 -33 -37 0
-12 -26 -33 -37 0
-15 -22 -26 -33 0
-15 -22 -26 -37 0
-15 -22 -33 -37 0
-15 -26 -33 -37 0
-22 -26 -33 -37 0
-1 -9 -15 -24 0
-1 -9 -15 -26 0
-1 -9 -15 -34 0
-1 -9 -15 -37 0
-1 -9 -24 -26 0
-1 -9 -24 -34 0
-1 -9 -24 -37 0
-1 -9 -26 -34 0
-1 -9 -26 -37 0
-1 -9 -34 -37 0
-1 -15 -24 -26 0
-1 -15 -24 -34 0
-1 -15 -24 -37 0
-1 -15 -26 -34 0
-1 -15 -26 -37 0
-1 -15 -34 -37 0
-1 -24 -26 -34 0
-1 -24 -26 -37 0
-1 -24 -34 -37 0
-1 -26 -34 -37 0
-9 -15 -24 -26 0
-9 -15 -24 -34 0
-9 -15 -24 -37 0
-9 -15 -26 -34 0
-9 -15 -26 -37 0
-9 -15 -34 -37 0
-9 -24 -26 -34 0
-9 -24 -26 -37 0
-9 -24 -34 -37 0
-9 -26 -34 -37 0
-15 -24 -26 -34 0
-15 -24 -26 -37 0
-15 -24 -34 -37 0
-15 -26 -34 -37 0
-24 -26 -34 -37 0
-2 -10 -16 -19 0
-2 -10 -16 -27 0
-2 -10 -16 -35 0
-2 -10 -16 -38 0
-2 -10 -19 -27 0
-2 -10 -19 -35 0
-2 -10 -19 -38 0
-2 -10 -27 -35 0
-2 -10 -27 -38 0
-2 -10 -35 -38 0
-2 -16 -19 -27 0
-2 -16 -19 -35 0
-2 -16 -19 -38 0
-2 -16 -27 -35 0
-2 -16 -27 -38 0
-2 -16 -35 -38 0
-2 -19 -27 -35 0
-2 -19 -27 -38 0
-2 -19 -35 -38 0
-2 -27 -35 -38 0
-10 -16 -19 -27 0
-10 -16 -19 -35 0
-10 -16 -19 -38 0
-10 -16 -27 -35 0
-10 -16 -27 -38 0
-10 -16 -35 -38 0
-10 -19 -27 -35 0
-10 -19 -27 -38 0
-10 -19 -35 -38 0
-10 -27 -35 -38 0
-16 -19 -27 -35 0
-16 -19 -27 -38 0
-16 -19 -35 -38 0
-16 -27 -35 -38 0
-19 -27 -35 -38 0
-3 -11 -17 -20 0
-3 -11 -17 -28 0
-3 -11 -17 -36 0
-3 -11 -17 -39 0
-3 -11 -20 -28 0
-3 -11 -20 -36 0
-3 -11 -20 -39 0
-3 -11 -28 -36 0
-3 -11 -28 -39 0
-3 -11 -36 -39 0
-3 -17 -20 -28 0
-3 -17 -20 -36 0
-3 -17 -20 -39 0
-3 -17 -28 -36 0
-3 -17 -28 -39 0
-3 -17 -36 -39 0
-3 -20 -28 -36 0
-3 -20 -28 -39 0
-3 -20 -36 -39 0
-3 -28 -36 -39 0
-11 -17 -20 -28 0
-11 -17 -20 -36 0
-11 -17 -20 -39 0
-11 -17 -28 -36 0
-11 -17 -28 -39 0
-11 -17 -36 -39 0
-11 -20 -28 -36 0
-11 -20 -28 -39 0
-11 -20 -36 -39 0
-11 -28 -36 -39 0
-17 -20 -28 -36 0
-17 -20 -28 -39 0
-17 -20 -36 -39 0
-17 -28 -36 -39 0
-20 -28 -36 -39 0
-4 -12 -18 -21 0
-4 -12 -18 -29 0
-4 -12 -18 -31 0
-4 -12 -18 -40 0
-4 -12 -21 -29 0
-4 -12 -21 -31 0
-4 -12 -21 -40 0
-4 -12 -29 -31 0
-4 -12 -29 -40 0
-4 -12 -31 -40 0
-4 -18 -21 -29 0
-4 -18 -21 -31 0
-4 -18 -21 -40 0
-4 -18 -29 -31 0
-4 -18 -29 -40 0
-4 -18 -31 -40 0
-4 -21 -29 -31 0
-4 -21 -29 -40 0
-4 -21 -31 -40 0
-4 -29 -31 -40 0
-12 -18 -21 -29 0
-12 -18 -21 -31 0
-12 -18 -21 -40 0
-12 -18 -29 -31 0
-12 -18 -29 -40 0
-12 -18 -31 -40 0
-12 -21 -29 -31 0
-12 -21 -29 -40 0
-12 -21 -31 -40 0
-12 -29 -31 -40 0
-18 -21 -29 -31 0
-18 -21 -29 -40 0
-18 -21 -31 -40 0
-18 -29 -31 -40 0
-21 -29 -31 -40 0
-5 -7 -13 -22 0
-5 -7 -13 -30 0
-5 -7 -13 -32 0
-5 -7 -13 -41 0
-5 -7 -22 -30 0
-5 -7 -22 -32 0
-5 -7 -22 -41 0
-5 -7 -30 -32 0
-5 -7 -30 -41 0
-5 -7 -32 -41 0
-5 -13 -22 -30 0
-5 -13 -22 -32 0
-5 -13 -22 -41 0
-5 -13 -30 -32 0
-5 -13 -30 -41 0
-5 -13 -32 -41 0
-5 -22 -30 -32 0
-5 -22 -30 -41 0
-5 -22 -32 -41 0
-5 -30 -32 -41 0
-7 -13 -22 -30 0
-7 -13 -22 -32 0
-7 -13 -22 -41 0
-7 -13 -30 -32 0
-7 -13 -30 -41 0
-7 -13 -32 -41 0
-7 -22 -30 -32 0
-7 -22 -30 -41 0
-7 -22 -32 -41 0
-7 -30 -32 -41 0
-13 -22 -30 -32 0
-13 -22 -30 -41 0
-13 -22 -32 -41 0
-13 -30 -32 -41 0
-22 -30 -32 -41 0
-6 -8 -14 -23 0
-6 -8 -14 -25 0
-6 -8 -14 -33 0
-6 -8 -14 -42 0
-6 -8 -23 -25 0
-6 -8 -23 -33 0
-6 -8 -23 -42 0
-6 -8 -25 -33 0
-6 -8 -25 -42 0
-6 -8 -33 -42 0
-6 -14 -23 -25 0
-6 -14 -23 -33 0
-6 -14 -23 -42 0
-6 -14 -25 -33 0
-6 -14 -25 -42 0
-6 -14 -33 -42 0
-6 -23 -25 -33 0
-6 -23 -25 -42 0
-6 -23 -33 -42 0
-6 -25 -33 -42 0
-8 -14 -23 -25 0
-8 -14 -23 -33 0
-8 -14 -23 -42 0
-8 -14 -25 -33 0
-8 -14 -25 -42 0
-8 -14 -33 -42 0
-8 -23 -25 -33 0
-8 -23 -25 -42 0
-8 -23 -33 -42 0
-8 -25 -33 -42 0
-14 -23 -25 -33 0
-14 -23 -25 -42 0
-14 -23 -33 -42 0
-14 -25 -33 -42 0
-23 -25 -33 -42 0
-1 -9 -16 -19 0
-1 -9 -16 -26 0
-1 -9 -16 -31 0
-1 -9 -16 -40 0
-1 -9 -19 -26 0
-1 -9 -19 -31 0
-1 -9 -19 -40 0
-1 -9 -26 -31 0
-1 -9 -26 -40 0
-1 -9 -31 -40 0
-1 -16 -19 -26 0
-1 -16 -19 -31 0
-1 -16 -19 -40 0
-1 -16 -26 -31 0
-1 -16 -26 -40 0
-1 -16 -31 -40 0
-1 -19 -26 -31 0
-1 -19 -26 -40 0
-1 -19 -31 -40 0
-1 -26 -31 -40 0
-9 -16 -19 -26 0
-9 -16 -19 -31 0
-9 -16 -19 -40 0
-9 -16 -26 -31 0
-9 -16 -26 -40 0
-9 -16 -31 -40 0
-9 -19 -26 -31 0
-9 -19 -26 -40 0
-9 -19 -31 -40 0
-9 -26 -31 -40 0
-16 -19 -26 -31 0
-16 -19 -26 -40 0
-16 -19 -31 -40 0
-16 -26 -31 -40 0
-19 -26 -31 -40 0
-2 -10 -17 -20 0
-2 -10 -17 -27 0
-2 -10 -17 -32 0
-2 -10 -17 -41 0
-2 -10 -20 -27 0
-2 -10 -20 -32 0
-2 -10 -20 -41 0
-2 -10 -27 -32 0
-2 -10 -27 -41 0
-2 -10 -32 -41 0
-2 -17 -20 -27 0
-2 -17 -20 -32 0
-2 -17 -20 -41 0
-2 -17 -27 -32 0
-2 -17 -27 -41 0
-2 -17 -32 -41 0
-2 -20 -27 -32 0
-2 -20 -27 -41 0
-2 -20 -32 -41 0
-2 -27 -32 -41 0
-10 -17 -20 -27 0
-10 -17 -20 -32 0
-10 -17 -20 -41 0
-10 -17 -27 -32 0
-10 -17 -27 -41 0
-10 -17 -32 -41 0
-10 -20 -27 -32 0
-10 -20 -27 -41 0
-10 -20 -32 -41 0
-10 -27 -32 -41 0
-17 -20 -27 -32 0
-17 -20 -27 -41 0
-17 -20 -32 -41 0
-17 -27 -32 -41 0
-20 -27 -32 -41 0
-3 -11 -18 -21 0
-3 -11 -18 -28 0
-3 -11 -18 -33 0
-3 -11 -18 -42 0
-3 -11 -21 -28 0
-3 -11 -21 -33 0
-3 -11 -21 -42 0
-3 -11 -28 -33 0
-3 -11 -28 -42 0
-3 -11 -33 -42 0
-3 -18 -21 -28 0
-3 -18 -21 -33 0
-3 -18 -21 -42 0
-3 -18 -28 -33 0
-3 -18 -28 -42 0
-3 -18 -33 -42 0
-3 -21 -28 -33 0
-3 -21 -28 -42 0
-3 -21 -33 -42 0
-3 -28 -33 -42 0
-11 -18 -21 -28 0
-11 -18 -21 -33 0
-11 -18 -21 -42 0
-11 -18 -28 -33 0
-11 -18 -28 -42 0
-11 -18 -33 -42 0
-11 -21 -28 -33 0
-11 -21 -28 -42 0
-11 -21 -33 -42 0
-11 -28 -33 -42 0
-18 -21 -28 -33 0
-18 -21 -28 -42 0
-18 -21 -33 -42 0
-18 -28 -33 -42 0
-21 -28 -33 -42 0
-4 -12 -13 -22 0
-4 -12 -13 -29 0
-4 -12 -13 -34 0
-4 -12 -13 -37 0
-4 -12 -22 -29 0
-4 -12 -22 -34 0
-4 -12 -22 -37 0
-4 -12 -29 -34 0
-4 -12 -29 -37 0
-4 -12 -34 -37 0
-4 -13 -22 -29 0
-4 -13 -22 -34 0
-4 -13 -22 -37 0
-4 -13 -29 -34 0
-4 -13 -29 -37 0
-4 -13 -34 -37 0
-4 -22 -29 -34 0
-4 -22 -29 -37 0
-4 -22 -34 -37 0
-4 -29 -34 -37 0
-12 -13 -22 -29 0
-12 -13 -22 -34 0
-12 -13 -22 -37 0
-12 -13 -29 -34 0
-12 -13 -29 -37 0
-12 -13 -34 -37 0
-12 -22 -29 -34 0
-12 -22 -29 -37 0
-12 -22 -34 -37 0
-12 -29 -34 -37 0
-13 -22 -29 -34 0
-13 -22 -29 -37 0
-13 -22 -34 -37 0
-13 -29 -34 -37 0
-22 -29 -34 -37 0
-5 -7 -14 -23 0
-5 -7 -14 -30 0
-5 -7 -14 -35 0
-5 -7 -14 -38 0
-5 -7 -23 -30 0
-5 -7 -23 -35 0
-5 -7 -23 -38 0
-5 -7 -30 -35 0
-5 -7 -30 -38 0
-5 -7 -35 -38 0
-5 -14 -23 -30 0
-5 -14 -23 -35 0
-5 -14 -23 -38 0
-5 -14 -30 -35 0
-5 -14 -30 -38 0
-5 -14 -35 -38 0
-5 -23 -30 -35 0
-5 -23 -30 -38 0
-5 -23 -35 -38 0
-5 -30 -35 -38 0
-7 -14 -23 -30 0
-7 -14 -23 -35 0
-7 -14 -23 -38 0
-7 -14 -30 -35 0
-7 -14 -30 -38 0
-7 -14 -35 -38 0
-7 -23 -30 -35 0
-7 -23 -30 -38 0
-7 -23 -35 -38 0
-7 -30 -35 -38 0
-14 -23 -30 -35 0
-14 -23 -30 -38 0
-14 -23 -35 -38 0
-14 -30 -35 -38 0
-23 -30 -35 -38 0
-6 -8 -15 -24 0
-6 -8 -15 -25 0
-6 -8 -15 -36 0
-6 -8 -15 -39 0
-6 -8 -24 -25 0
-6 -8 -24 -36 0
-6 -8 -24 -39 0
-6 -8 -25 -36 0
-6 -8 -25 -39 0
-6 -8 -36 -39 0
-6 -15 -24 -25 0
-6 -15 -24 -36 0
-6 -15 -24 -39 0
-6 -15 -25 -36 0
-6 -15 -25 -39 0
-6 -15 -36 -39 0
-6 -24 -25 -36 0
-6 -24 -25 -39 0
-6 -24 -36 -39 0
-6 -25 -36 -39 0
-8 -15 -24 -25 0
-8 -15 -24 -36 0
-8 -15 -24 -39 0
-8 -15 -25 -36 0
-8 -15 -25 -39 0
-8 -15 -36 -39 0
-8 -24 -25 -36 0
-8 -24 -25 -39 0
-8 -24 -36 -39 0
-8 -25 -36 -39 0
-15 -24 -25 -36 0
-15 -24 -25 -39 0
-15 -24 -36 -39 0
-15 -25 -36 -39 0
-24 -25 -36 -39 0
-1 -11 -14 -23 0
-1 -11 -14 -28 0
-1 -11 -14 -35 0
-1 -11 -14 -40 0
-1 -11 -23 -28 0
-1 -11 -23 -35 0
-1 -11 -23 -40 0
-1 -11 -28 -35 0
-1 -11 -28 -40 0
-1 -11 -35 -40 0
-1 -14 -23 -28 0
-1 -14 -23 -35 0
-1 -14 -23 -40 0
-1 -14 -28 -35 0
-1 -14 -28 -40 0
-1 -14 -35 -40 0
-1 -23 -28 -35 0
-1 -23 -28 -40 0
-1 -23 -35 -40 0
-1 -28 -35 -40 0
-11 -14 -23 -28 0
-11 -14 -23 -35 0
-11 -14 -23 -40 0
-11 -14 -28 -35 0
-11 -14 -28 -40 0
-11 -14 -35 -40 0
-11 -23 -28 -35 0
-11 -23 -28 -40 0
-11 -23 -35 -40 0
-11 -28 -35 -40 0
-14 -23 -28 -35 0
-14 -23 -28 -40 0
-14 -23 -35 -40 0
-14 -28 -35 -40 0
-23 -28 -35 -40 0
-2 -12 -15 -24 0
-2 -12 -15 -29 0
-2 -12 -15 -36 0
-2 -12 -15 -41 0
-2 -12 -24 -29 0
-2 -12 -24 -36 0
-2 -12 -24 -41 0
-2 -12 -29 -36 0
-2 -12 -29 -41 0
-2 -12 -36 -41 0
-2 -15 -24 -29 0
-2 -15 -24 -36 0
-2 -15 -24 -41 0
-2 -15 -29 -36 0
-2 -15 -29 -41 0
-2 -15 -36 -41 0
-2 -24 -29 -36 0
-2 -24 -29 -41 0
-2 -24 -36 -41 0
-2 -29 -36 -41 0
-12 -15 -24 -29 0
-12 -15 -24 -36 0
-12 -15 -24 -41 0
-12 -15 -29 -36 0
-12 -15 -29 -41 0
-12 -15 -36 -41 0
-12 -24 -29 -36 0
-12 -24 -29 -41 0
-12 -24 -36 -41 0
-12 -29 -36 -41 0
-15 -24 -29 -36 0
-15 -24 -29 -41 0
-15 -24 -36 -41 0
-15 -29 -36 -41 0
-24 -29 -36 -41 0
-3 -7 -16 -19 0
-3 -7 -16 -30 0
-3 -7 -16 -31 0
-3 -7 -16 -42 0
-3 -7 -19 -30 0
-3 -7 -19 -31 0
-3 -7 -19 -42 0
-3 -7 -30 -31 0
-3 -7 -30 -42 0
-3 -7 -31 -42 0
-3 -16 -19 -30 0
-3 -16 -19 -31 0
-3 -16 -19 -42 0
-3 -16 -30 -31 0
-3 -16 -30 -42 0
-3 -16 -31 -42 0
-3 -19 -30 -31 0
-3 -19 -30 -42 0
-3 -19 -31 -42 0
-3 -30 -31 -42 0
-7 -16 -19 -30 0
-7 -16 -19 -31 0
-7 -16 -19 -42 0
-7 -16 -30 -31 0
-7 -16 -30 -42 0
-7 -16 -31 -42 0
-7 -19 -30 -31 0
-7 -19 -30 -42 0
-7 -19 -31 -42 0
-7 -30 -31 -42 0
-16 -19 -30 -31 0
-16 -19 -30 -42 0
-16 -19 -31 -42 0
-16 -30 -31 -42 0
-19 -30 -31 -42 0
-4 -8 -17 -20 0
-4 -8 -17 -25 0
-4 -8 -17 -33 0
-4 -8 -17 -37 0
-4 -8 -20 -25 0
-4 -8 -20 -33 0
-4 -8 -20 -37 0
-4 -8 -25 -33 0
-4 -8 -25 -37 0
-4 -8 -33 -37 0
-4 -17 -20 -25 0
-4 -17 -20 -33 0
-4 -17 -20 -37 0
-4 -17 -25 -33 0
-4 -17 -25 -37 0
-4 -17 -33 -37 0
-4 -20 -25 -33 0
-4 -20 -25 -37 0
-4 -20 -33 -37 0
-4 -25 -33 -37 0
-8 -17 -20 -25 0
-8 -17 -20 -33 0
-8 -17 -20 -37 0
-8 -17 -25 -33 0
-8 -17 -25 -37 0
-8 -17 -33 -37 0
-8 -20 -25 -33 0
-8 -20 -25 -37 0
-8 -20 -33 -37 0
-8 -25 -33 -37 0
-17 -20 -25 -33 0
-17 -20 -25 -37 0
-17 -20 -33 -37 0
-17 -25 -33 -37 0
-20 -25 -33 -37 0
-5 -9 -18 -21 0
-5 -9 -18 -26 0
-5 -9 -18 -33 0
-5 -9 -18 -38 0
-5 -9 -21 -26 0
-5 -9 -21 -33 0
-5 -9 -21 -38 0
-5 -9 -26 -33 0
-5 -9 -26 -38 0
-5 -9 -33 -38 0
-5 -18 -21 -26 0
-5 -18 -21 -33 0
-5 -18 -21 -38 0
-5 -18 -26 -33 0
-5 -18 -26 -38 0
-5 -18 -33 -38 0
-5 -21 -26 -33 0
-5 -21 -26 -38 0
-5 -21 -33 -38 0
-5 -26 -33 -38 0
-9 -18 -21 -26 0
-9 -18 -21 -33 0
-9 -18 -21 -38 0
-9 -18 -26 -33 0
-9 -18 -26 -38 0
-9 -18 -33 -38 0
-9 -21 -26 -33 0
-9 -21 -26 -38 0
-9 -21 -33 -38 0
-9 -26 -33 -38 0
-18 -21 -26 -33 0
-18 -21 -26 -38 0
-18 -21 -33 -38 0
-18 -26 -33 -38 0
-21 -26 -33 -38 0
-6 -10 -13 -22 0
-6 -10 -13 -27 0
-6 -10 -13 -34 0
-6 -10 -13 -39 0
-6 -10 -22 -27 0
-6 -10 -22 -34 0
-6 -10 -22 -39 0
-6 -10 -27 -34 0
-6 -10 -27 -39 0
-6 -10 -34 -39 0
-6 -13 -22 -27 0
-6 -13 -22 -34 0
-6 -13 -22 -39 0
-6 -13 -27 -34 0
-6 -13 -27 -39 0
-6 -13 -34 -39 0
-6 -22 -27 -34 0
-6 -22 -27 -39 0
-6 -22 -34 -39 0
-6 -27 -34 -39 0
-10 -13 -22 -27 0
-10 -13 -22 -34 0
-10 -13 -22 -39 0
-10 -13 -27 -34 0
-10 -13 -27 -39 0
-10 -13 -34 -39 0
-10 -22 -27 -34 0
-10 -22 -27 -39 0
-10 -22 -34 -39 0
-10 -27 -34 -39 0
-13 -22 -27 -34 0
-13 -22 -27 -39 0
-13 -22 -34 -39 0
-13 -27 -34 -39 0
-22 -27 -34 -39 0
-1 -8 -17 -24 0
-1 -8 -17 -27 0
-1 -8 -17 -31 0
-1 -8 -17 -42 0
-1 -8 -24 -27 0
-1 -8 -24 -31 0
-1 -8 -24 -42 0
-1 -8 -27 -31 0
-1 -8 -27 -42 0
-1 -8 -31 -42 0
-1 -17 -24 -27 0
-1 -17 -24 -31 0
-1 -17 -24 -42 0
-1 -17 -27 -31 0
-1 -17 -27 -42 0
-1 -17 -31 -42 0
-1 -24 -27 -31 0
-1 -24 -27 -42 0
-1 -24 -31 -42 0
-1 -27 -31 -42 0
-8 -17 -24 -27 0
-8 -17 -24 -31 0
-8 -17 -24 -42 0
-8 -17 -27 -31 0
-8 -17 -27 -42 0
-8 -17 -31 -42 0
-8 -24 -27 -31 0
-8 -24 -27 -42 0
-8 -24 -31 -42 0
-8 -27 -31 -42 0
-17 -24 -27 -31 0
-17 -24 -27 -42 0
-17 -24 -31 -42 0
-17 -27 -31 -42 0
-24 -27 -31 -42 0
-2 -9 -18 -19 0
-2 -9 -18 -28 0
-2 -9 -18 -32 0
-2 -9 -18 -37 0
-2 -9 -19 -28 0
-2 -9 -19 -32 0
-2 -9 -19 -37 0
-2 -9 -28 -32 0
-2 -9 -28 -37 0
-2 -9 -32 -37 0
-2 -18 -19 -28 0
-2 -18 -19 -32 0
-2 -18 -19 -37 0
-2 -18 -28 -32 0
-2 -18 -28 -37 0
-2 -18 -32 -37 0
-2 -19 -28 -32 0
-2 -19 -28 -37 0
-2 -19 -32 -37 0
-2 -28 -32 -37 0
-9 -18 -19 -28 0
-9 -18 -19 -32 0
-9 -18 -19 -37 0
-9 -18 -28 -32 0
-9 -18 -28 -37 0
-9 -18 -32 -37 0
-9 -19 -28 -32 0
-9 -19 -28 -37 0
-9 -19 -32 -37 0
-9 -28 -32 -37 0
-18 -19 -28 -32 0
-18 -19 -28 -37 0
-18 -19 -32 -37 0
-18 -28 -32 -37 0
-19 -28 -32 -37 0
-3 -10 -13 -20 0
-3 -10 -13 -29 0
-3 -10 -13 -33 0
-3 -10 -13 -38 0
-3 -10 -20 -29 0
-3 -10 -20 -33 0
-3 -10 -20 -38 0
-3 -10 -29 -33 0
-3 -10 -29 -38 0
-3 -10 -33 -38 0
-3 -13 -20 -29 0
-3 -13 -20 -33 0
-3 -13 -20 -38 0
-3 -13 -29 -33 0
-3 -13 -29 -38 0
-3 -13 -33 -38 0
-3 -20 -29 -33 0
-3 -20 -29 -38 0
-3 -20 -33 -38 0
-3 -29 -33 -38 0
-10 -13 -20 -29 0
-10 -13 -20 -33 0
-10 -13 -20 -38 0
-10 -13 -29 -33 0
-10 -13 -29 -38 0
-10 -13 -33 -38 0
-10 -20 -29 -33 0
-10 -20 -29 -38 0
-10 -20 -33 -38 0
-10 -29 -33 -38 0
-13 -20 -29 -33 0
-13 -20 -29 -38 0
-13 -20 -33 -38 0
-13 -29 -33 -38 0
-20 -29 -33 -38 0
-4 -11 -14 -21 0
-4 -11 -14 -30 0
-4 -11 -14 -34 0
-4 -11 -14 -39 0
-4 -11 -21 -30 0
-4 -11 -21 -34 0
-4 -11 -21 -39 0
-4 -11 -30 -34 0
-4 -11 -30 -39 0
-4 -11 -34 -39 0
-4 -14 -21 -30 0
-4 -14 -21 -34 0
-4 -14 -21 -39 0
-4 -14 -30 -34 0
-4 -14 -30 -39 0
-4 -14 -34 -39 0
-4 -21 -30 -34 0
-4 -21 -30 -39 0
-4 -21 -34 -39 0
-4 -30 -34 -39 0
-11 -14 -21 -30 0
-11 -14 -21 -34 0
-11 -14 -21 -39 0
-11 -14 -30 -34 0
-11 -14 -30 -39 0
-11 -14 -34 -39 0
-11 -21 -30 -34 0
-11 -21 -30 -39 0
-11 -21 -34 -39 0
-11 -30 -34 -39 0
-14 -21 -30 -34 0
-14 -21 -30 -39 0
-14 -21 -34 -39 0
-14 -30 -34 -39 0
-21 -30 -34 -39 0
-5 -12 -15 -22 0
-5 -12 -15 -25 0
-5 -12 -15 -35 0
-5 -12 -15 -40 0
-5 -12 -22 -25 0
-5 -12 -22 -35 0
-5 -12 -22 -40 0
-5 -12 -25 -35 0
-5 -12 -25 -40 0
-5 -12 -35 -40 0
-5 -15 -22 -25 0
-5 -15 -22 -35 0
-5 -15 -22 -40 0
-5 -15 -25 -35 0
-5 -15 -25 -40 0
-5 -15 -35 -40 0
-5 -22 -25 -35 0
-5 -22 -25 -40 0
-5 -22 -35 -40 0
-5 -25 -35 -40 0
-12 -15 -22 -25 0
-12 -15 -22 -35 0
-12 -15 -22 -40 0
-12 -15 -25 -35 0
-12 -15 -25 -40 0
-12 -15 -35 -40 0
-12 -22 -25 -35 0
-12 -22 -25 -40 0
-12 -22 -35 -40 0
-12 -25 -35 -40 0
-15 -22 -25 -35 0
-15 -22 -25 -40 0
-15 -22 -35 -40 0
-15 -25 -35 -40 0
-22 -25 -35 -40 0
-6 -7 -16 -23 0
-6 -7 -16 -26 0
-6 -7 -16 -36 0
-6 -7 -16 -41 0
-6 -7 -23 -26 0
-6 -7 -23 -36 0
-6 -7 -23 -41 0
-6 -7 -26 -36 0
-6 -7 -26 -41 0
-6 -7 -36 -41 0
-6 -16 -23 -26 0
-6 -16 -23 -36 0
-6 -16 -23 -41 0
-6 -16 -26 -36 0
-6 -16 -26 -41 0
-6 -16 -36 -41 0
-6 -23 -26 -36 0
-6 -23 -26 -41 0
-6 -23 -36 -41 0
-6 -26 -36 -41 0
-7 -16 -23 -26 0
-7 -16 -23 -36 0
-7 -16 -23 -41 0
-7 -16 -26 -36 0
-7 -16 -26 -41 0
-7 -16 -36 -41 0
-7 -23 -26 -36 0
-7 -23 -26 -41 0
-7 -23 -36 -41 0
-7 -26 -36 -41 0
-16 -23 -26 -36 0
-16 -23 -26 -41 0
-16 -23 -36 -41 0
-16 -26 -36 -41 0
-23 -26 -36 -41 0
-1 -12 -14 -21 0
-1 -12 -14 -29 0
-1 -12 -14 -36 0
-1 -12 -14 -37 0
-1 -12 -21 -29 0
-1 -12 -21 -36 0
-1 -12 -21 -37 0
-1 -12 -29 -36 0
-1 -12 -29 -37 0
-1 -12 -36 -37 0
-1 -14 -21 -29 0
-1 -14 -21 -36 0
-1 -14 -21 -37 0
-1 -14 -29 -36 0
-1 -14 -29 -37 0
-1 -14 -36 -37 0
-1 -21 -29 -36 0
-1 -21 -29 -37 0
-1 -21 -36 -37 0
-1 -29 -36 -37 0
-12 -14 -21 -29 0
-12 -14 -21 -36 0
-12 -14 -21 -37 0
-12 -14 -29 -36 0
-12 -14 -29 -37 0
-12 -14 -36 -37 0
-12 -21 -29 -36 0
-12 -21 -29 -37 0
-12 -21 -36 -37 0
-12 -29 -36 -37 0
-14 -21 -29 -36 0
-14 -21 -29 -37 0
-14 -21 -36 -37 0
-14 -29 -36 -37 0
-21 -29 -36 -37 0
-2 -7 -15 -22 0
-2 -7 -15 -30 0
-2 -7 -15 -31 0
-2 -7 -15 -38 0
-2 -7 -22 -30 0
-2 -7 -22 -31 0
-2 -7 -22 -38 0
-2 -7 -30 -31 0
-2 -7 -30 -38 0
-2 -7 -31 -38 0
-2 -15 -22 -30 0
-2 -15 -22 -31 0
-2 -15 -22 -38 0
-2 -15 -30 -31 0
-2 -15 -30 -38 0
-2 -15 -31 -38 0
-2 -22 -30 -31 0
-2 -22 -30 -38 0
-2 -22 -31 -38 0
-2 -30 -31 -38 0
-7 -15 -22 -30 0
-7 -15 -22 -31 0
-7 -15 -22 -38 0
-7 -15 -30 -31 0
-7 -15 -30 -38 0
-7 -15 -31 -38 0
-7 -22 -30 -31 0
-7 -22 -30 -38 0
-7 -22 -31 -38 0
-7 -30 -31 -38 0
-15 -22 -30 -31 0
-15 -22 -30 -38 0
-15 -22 -31 -38 0
-15 -30 -31 -38 0
-22 -30 -31 -38 0
-3 -8 -16 -23 0
-3 -8 -16 -25 0
-3 -8 -16 -32 0
-3 -8 -16 -39 0
-3 -8 -23 -25 0
-3 -8 -23 -32 0
-3 -8 -23 -39 0
-3 -8 -25 -32 0
-3 -8 -25 -39 0
-3 -8 -32 -39 0
-3 -16 -23 -25 0
-3 -16 -23 -32 0
-3 -16 -23 -39 0
-3 -16 -25 -32 0
-3 -16 -25 -39 0
-3 -16 -32 -39 0
-3 -23 -25 -32 0
-3 -23 -25 -39 0
-3 -23 -32 -39 0
-3 -25 -32 -39 0
-8 -16 -23 -25 0
-8 -16 -23 -32 0
-8 -16 -23 -39 0
-8 -16 -25 -32 0
-8 -16 -25 -39 0
-8 -16 -32 -39 0
-8 -23 -25 -32 0
-8 -23 -25 -39 0
-8 -23 -32 -39 0
-8 -25 -32 -39 0
-16 -23 -25 -32 0
-16 -23 -25 -39 0
-16 -23 -32 -39 0
-16 -25 -32 -39 0
-23 -25 -32 -39 0
-4 -9 -17 -24 0
-4 -9 -17 -26 0
-4 -9 -17 -33 0
-4 -9 -17 -40 0
-4 -9 -24 -26 0
-4 -9 -24 -33 0
-4 -9 -24 -40 0
-4 -9 -26 -33 0
-4 -9 -26 -40 0
-4 -9 -33 -40 0
-4 -17 -24 -26 0
-4 -17 -24 -33 0
-4 -17 -24 -40 0
-4 -17 -26 -33 0
-4 -17 -26 -40 0
-4 -17 -33 -40 0
-4 -24 -26 -33 0
-4 -24 -26 -40 0
-4 -24 -33 -40 0
-4 -26 -33 -40 0
-9 -17 -24 -26 0
-9 -17 -24 -33 0
-9 -17 -24 -40 0
-9 -17 -26 -33 0
-9 -17 -26 -40 0
-9 -17 -33 -40 0
-9 -24 -26 -33 0
-9 -24 -26 -40 0
-9 -24 -33 -40 0
-9 -26 -33 -40 0
-17 -24 -26 -33 0
-17 -24 -26 -40 0
-17 -24 -33 -40 0
-17 -26 -33 -40 0
-24 -26 -33 -40 0
-5 -10 -18 -19 0
-5 -10 -18 -27 0
-5 -10 -18 -34 0
-5 -10 -18 -41 0
-5 -10 -19 -27 0
-5 -10 -19 -34 0
-5 -10 -19 -41 0
-5 -10 -27 -34 0
-5 -10 -27 -41 0
-5 -10 -34 -41 0
-5 -18 -19 -27 0
-5 -18 -19 -34 0
-5 -18 -19 -41 0
-5 -18 -27 -34 0
-5 -18 -27 -41 0
-5 -18 -34 -41 0
-5 -19 -27 -34 0
-5 -19 -27 -41 0
-5 -19 -34 -41 0
-5 -27 -34 -41 0
-10 -18 -19 -27 0
-10 -18 -19 -34 0
-10 -18 -19 -41 0
-10 -18 -27 -34 0
-10 -18 -27 -41 0
-10 -18 -34 -41 0
-10 -19 -27 -34 0
-10 -19 -27 -41 0
-10 -19 -34 -41 0
-10 -27 -34 -41 0
-18 -19 -27 -34 0
-18 -19 -27 -41 0
-18 -19 -34 -41 0
-18 -27 -34 -41 0
-19 -27 -34 -41 0
-6 -11 -13 -20 0
-6 -11 -13 -28 0
-6 -11 -13 -35 0
-6 -11 -13 -42 0
-6 -11 -20 -28 0
-6 -11 -20 -35 0
-6 -11 -20 -42 0
-6 -11 -28 -35 0
-6 -11 -28 -42 0
-6 -11 -35 -42 0
-6 -13 -20 -28 0
-6 -13 -20 -35 0
-6 -13 -20 -42 0
-6 -13 -28 -35 0
-6 -13 -28 -42 0
-6 -13 -35 -42 0
-6 -20 -28 -35 0
-6 -20 -28 -42 0
-6 -20 -35 -42 0
-6 -28 -35 -42 0
-11 -13 -20 -28 0
-11 -13 -20 -35 0
-11 -13 -20 -42 0
-11 -13 -28 -35 0
-11 -13 -28 -42 0
-11 -13 -35 -42 0
-11 -20 -28 -35 0
-11 -20 -28 -42 0
-11 -20 -35 -42 0
-11 -28 -35 -42 0
-13 -20 -28 -35 0
-13 -20 -28 -42 0
-13 -20 -35 -42 0
-13 -28 -35 -42 0
-20 -28 -35 -42 0
-1 -12 -17 -20 0
-1 -12 -17 -25 0
-1 -12 -17 -32 0
-1 -12 -17 -41 0
-1 -12 -20 -25 0
-1 -12 -20 -32 0
-1 -12 -20 -41 0
-1 -12 -25 -32 0
-1 -12 -25 -41 0
-1 -12 -32 -41 0
-1 -17 -20 -25 0
-1 -17 -20 -32 0
-1 -17 -20 -41 0
-1 -17 -25 -32 0
-1 -17 -25 -41 0
-1 -17 -32 -41 0
-1 -20 -25 -32 0
-1 -20 -25 -41 0
-1 -20 -32 -41 0
-1 -25 -32 -41 0
-12 -17 -20 -25 0
-12 -17 -20 -32 0
-12 -17 -20 -41 0
-12 -17 -25 -32 0
-12 -17 -25 -41 0
-12 -17 -32 -41 0
-12 -20 -25 -32 0
-12 -20 -25 -41 0
-12 -20 -32 -41 0
-12 -25 -32 -41 0
-17 -20 -25 -32 0
-17 -20 -25 -41 0
-17 -20 -32 -41 0
-17 -25 -32 -41 0
-20 -25 -32 -41 0
-2 -7 -18 -21 0
-2 -7 -18 -26 0
-2 -7 -18 -31 0
-2 -7 -18 -42 0
-2 -7 -21 -26 0
-2 -7 -21 -31 0
-2 -7 -21 -42 0
-2 -7 -26 -31 0
-2 -7 -26 -42 0
-2 -7 -31 -42 0
-2 -18 -21 -26 0
-2 -18 -21 -31 0
-2 -18 -21 -42 0
-2 -18 -26 -31 0
-2 -18 -26 -42 0
-2 -18 -31 -42 0
-2 -21 -26 -31 0
-2 -21 -26 -42 0
-2 -21 -31 -42 0
-2 -26 -31 -42 0
-7 -18 -21 -26 0
-7 -18 -21 -31 0
-7 -18 -21 -42 0
-7 -18 -26 -31 0
-7 -18 -26 -42 0
-7 -18 -31 -42 0
-7 -21 -26 -31 0
-7 -21 -26 -42 0
-7 -21 -31 -42 0
-7 -26 -31 -42 0
-18 -21 -26 -31 0
-18 -21 -26 -42 0
-18 -21 -31 -42 0
-18 -26 -31 -42 0
-21 -26 -31 -42 0
-3 -8 -13 -22 0
-3 -8 -13 -27 0
-3 -8 -13 -35 0
-3 -8 -13 -37 0
-3 -8 -22 -27 0
-3 -8 -22 -35 0
-3 -8 -22 -37 0
-3 -8 -27 -35 0
-3 -8 -27 -37 0
-3 -8 -35 -37 0
-3 -13 -22 -27 0
-3 -13 -22 -35 0
-3 -13 -22 -37 0
-3 -13 -27 -35 0
-3 -13 -27 -37 0
-3 -13 -35 -37 0
-3 -22 -27 -35 0
-3 -22 -27 -37 0
-3 -22 -35 -37 0
-3 -27 -35 -37 0
-8 -13 -22 -27 0
-8 -13 -22 -35 0
-8 -13 -22 -37 0
-8 -13 -27 -35 0
-8 -13 -27 -37 0
-8 -13 -35 -37 0
-8 -22 -27 -35 0
-8 -22 -27 -37 0
-8 -22 -35 -37 0
-8 -27 -35 -37 0
-13 -22 -27 -35 0
-13 -22 -27 -37 0
-13 -22 -35 -37 0
-13 -27 -35 -37 0
-22 -27 -35 -37 0
-4 -9 -14 -23 0
-4 -9 -14 -28 0
-4 -9 -14 -35 0
-4 -9 -14 -38 0
-4 -9 -23 -28 0
-4 -9 -23 -35 0
-4 -9 -23 -38 0
-4 -9 -28 -35 0
-4 -9 -28 -38 0
-4 -9 -35 -38 0
-4 -14 -23 -28 0
-4 -14 -23 -35 0
-4 -14 -23 -38 0
-4 -14 -28 -35 0
-4 -14 -28 -38 0
-4 -14 -35 -38 0
-4 -23 -28 -35 0
-4 -23 -28 -38 0
-4 -23 -35 -38 0
-4 -28 -35 -38 0
-9 -14 -23 -28 0
-9 -14 -23 -35 0
-9 -14 -23 -38 0
-9 -14 -28 -35 0
-9 -14 -28 -38 0
-9 -14 -35 -38 0
-9 -23 -28 -35 0
-9 -23 -28 -38 0
-9 -23 -35 -38 0
-9 -28 -35 -38 0
-14 -23 -28 -35 0
-14 -23 -28 -38 0
-14 -23 -35 -38 0
-14 -28 -35 -38 0
-23 -28 -35 -38 0
-5 -10 -15 -24 0
-5 -10 -15 -29 0
-5 -10 -15 -31 0
-5 -10 -15 -39 0
-5 -10 -24 -29 0
-5 -10 -24 -31 0
-5 -10 -24 -39 0
-5 -10 -29 -31 0
-5 -10 -29 -39 0
-5 -10 -31 -39 0
-5 -15 -24 -29 0
-5 -15 -24 -31 0
-5 -15 -24 -39 0
-5 -15 -29 -31 0
-5 -15 -29 -39 0
-5 -15 -31 -39 0
-5 -24 -29 -31 0
-5 -24 -29 -39 0
-5 -24 -31 -39 0
-5 -29 -31 -39 0
-10 -15 -24 -29 0
-10 -15 -24 -31 0
-10 -15 -24 -39 0
-10 -15 -29 -31 0
-10 -15 -29 -39 0
-10 -15 -31 -39 0
-10 -24 -29 -31 0
-10 -24 -29 -39 0
-10 -24 -31 -39 0
-10 -29 -31 -39 0
-15 -24 -29 -31 0
-15 -24 -29 -39 0
-15 -24 -31 -39 0
-15 -29 -31 -39 0
-24 -29 -31 -39 0
-6 -11 -16 -19 0
-6 -11 -16 -30 0
-6 -11 -16 -31 0
-6 -11 -16 -40 0
-6 -11 -19 -30 0
-6 -11 -19 -31 0
-6 -11 -19 -40 0
-6 -11 -30 -31 0
-6 -11 -30 -40 0
-6 -11 -31 -40 0
-6 -16 -19 -30 0
-6 -16 -19 -31 0
-6 -16 -19 -40 0
-6 -16 -30 -31 0
-6 -16 -30 -40 0
-6 -16 -31 -40 0
-6 -19 -30 -31 0
-6 -19 -30 -40 0
-6 -19 -31 -40 0
-6 -30 -31 -40 0
-11 -16 -19 -30 0
-11 -16 -19 -31 0
-11 -16 -19 -40 0
-11 -16 -30 -31 0
-11 -16 -30 -40 0
-11 -16 -31 -40 0
-11 -19 -30 -31 0
-11 -19 -30 -40 0
-11 -19 -31 -40 0
-11 -30 -31 -40 0
-16 -19 -30 -31 0
-16 -19 -30 -40 0
-16 -19 -31 -40 0
-16 -30 -31 -40 0
-19 -30 -31 -40 0
-1 -9 -13 -24 0
-1 -9 -13 -28 0
-1 -9 -13 -34 0
-1 -9 -13 -38 0
-1 -9 -24 -28 0
-1 -9 -24 -34 0
-1 -9 -24 -38 0
-1 -9 -28 -34 0
-1 -9 -28 -38 0
-1 -9 -34 -38 0
-1 -13 -24 -28 0
-1 -13 -24 -34 0
-1 -13 -24 -38 0
-1 -13 -28 -34 0
-1 -13 -28 -38 0
-1 -13 -34 -38 0
-1 -24 -28 -34 0
-1 -24 -28 -38 0
-1 -24 -34 -38 0
-1 -28 -34 -38 0
-9 -13 -24 -28 0
-9 -13 -24 -34 0
-9 -13 -24 -38 0
-9 -13 -28 -34 0
-9 -13 -28 -38 0
-9 -13 -34 -38 0
-9 -24 -28 -34 0
-9 -24 -28 -38 0
-9 -24 -34 -38 0
-9 -28 -34 -38 0
-13 -24 -28 -34 0
-13 -24 -28 -38 0
-13 -24 -34 -38 0
-13 -28 -34 -38 0
-24 -28 -34 -38 0
-2 -10 -14 -19 0
-2 -10 -14 -29 0
-2 -10 -14 -35 0
-2 -10 -14 -39 0
-2 -10 -19 -29 0
-2 -10 -19 -35 0
-2 -10 -19 -39 0
-2 -10 -29 -35 0
-2 -10 -29 -39 0
-2 -10 -35 -39 0
-2 -14 -19 -29 0
-2 -14 -19 -35 0
-2 -14 -19 -39 0
-2 -14 -29 -35 0
-2 -14 -29 -39 0
-2 -14 -35 -39 0
-2 -19 -29 -35 0
-2 -19 -29 -39 0
-2 -19 -35 -39 0
-2 -29 -35 -39 0
-10 -14 -19 -29 0
-10 -14 -19 -35 0
-10 -14 -19 -39 0
-10 -14 -29 -35 0
-10 -14 -29 -39 0
-10 -14 -35 -39 0
-10 -19 -29 -35 0
-10 -19 -29 -39 0
-10 -19 -35 -39 0
-10 -29 -35 -39 0
-14 -19 -29 -35 0
-14 -19 -29 -39 0
-14 -19 -35 -39 0
-14 -29 -35 -39 0
-19 -29 -35 -39 0
-3 -11 -15 -20 0
-3 -11 -15 -30 0
-3 -11 -15 -36 0
-3 -11 -15 -40 0
-3 -11 -20 -30 0
-3 -11 -20 -36 0
-3 -11 -20 -40 0
-3 -11 -30 -36 0
-3 -11 -30 -40 0
-3 -11 -36 -40 0
-3 -15 -20 -30 0
-3 -15 -20 -36 0
-3 -15 -20 -40 0
-3 -15 -30 -36 0
-3 -15 -30 -40 0
-3 -15 -36 -40 0
-3 -20 -30 -36 0
-3 -20 -30 -40 0
-3 -20 -36 -40 0
-3 -30 -36 -40 0
-11 -15 -20 -30 0
-11 -15 -20 -36 0
-11 -15 -20 -40 0
-11 -15 -30 -36 0
-11 -15 -30 -40 0
-11 -15 -36 -40 0
-11 -20 -30 -36 0
-11 -20 -30 -40 0
-11 -20 -36 -40 0
-11 -30 -36 -40 0
-15 -20 -30 -36 0
-15 -20 -30 -40 0
-15 -20 -36 -40 0
-15 -30 -36 -40 0
-20 -30 -36 -40 0
-4 -12 -16 -21 0
-4 -12 -16 -25 0
-4 -12 -16 -31 0
-4 -12 -16 -41 0
-4 -12 -21 -25 0
-4 -12 -21 -31 0
-4 -12 -21 -41 0
-4 -12 -25 -31 0
-4 -12 -25 -41 0
-4 -12 -31 -41 0
-4 -16 -21 -25 0
-4 -16 -21 -31 0
-4 -16 -21 -41 0
-4 -16 -25 -31 0
-4 -16 -25 -41 0
-4 -16 -31 -41 0
-4 -21 -25 -31 0
-4 -21 -25 -41 0
-4 -21 -31 -41 0
-4 -25 -31 -41 0
-12 -16 -21 -25 0
-12 -16 -21 -31 0
-12 -16 -21 -41 0
-12 -16 -25 -31 0
-12 -16 -25 -41 0
-12 -16 -31 -41 0
-12 -21 -25 -31 0
-12 -21 -25 -41 0
-12 -21 -31 -41 0
-12 -25 -31 -41 0
-16 -21 -25 -31 0
-16 -21 -25 -41 0
-16 -21 -31 -41 0
-16 -25 -31 -41 0
-21 -25 -31 -41 0
-5 -7 -17 -22 0
-5 -7 -17 -26 0
-5 -7 -17 -32 0
-5 -7 -17 -42 0
-5 -7 -22 -26 0
-5 -7 -22 -32 0
-5 -7 -22 -42 0
-5 -7 -26 -32 0
-5 -7 -26 -42 0
-5 -7 -32 -42 0
-5 -17 -22 -26 0
-5 -17 -22 -32 0
-5 -17 -22 -42 0
-5 -17 -26 -32 0
-5 -17 -26 -42 0
-5 -17 -32 -42 0
-5 -22 -26 -32 0
-5 -22 -26 -42 0
-5 -22 -32 -42 0
-5 -26 -32 -42 0
-7 -17 -22 -26 0
-7 -17 -22 -32 0
-7 -17 -22 -42 0
-7 -17 -26 -32 0
-7 -17 -26 -42 0
-7 -17 -32 -42 0
-7 -22 -26 -32 0
-7 -22 -26 -42 0
-7 -22 -32 -42 0
-7 -26 -32 -42 0
-17 -22 -26 -32 0
-17 -22 -26 -42 0
-17 -22 -32 -42 0
-17 -26 -32 -42 0
-22 -26 -32 -42 0
-6 -8 -18 -23 0
-6 -8 -18 -27 0
-6 -8 -18 -33 0
-6 -8 -18 -37 0
-6 -8 -23 -27 0
-6 -8 -23 -33 0
-6 -8 -23 -37 0
-6 -8 -27 -33 0
-6 -8 -27 -37 0
-6 -8 -33 -37 0
-6 -18 -23 -27 0
-6 -18 -23 -33 0
-6 -18 -23 -37 0
-6 -18 -27 -33 0
-6 -18 -27 -37 0
-6 -18 -33 -37 0
-6 -23 -27 -33 0
-6 -23 -27 -37 0
-6 -23 -33 -37 0
-6 -27 -33 -37 0
-8 -18 -23 -27 0
-8 -18 -23 -33 0
-8 -18 -23 -37 0
-8 -18 -27 -33 0
-8 -18 -27 -37 0
-8 -18 -33 -37 0
-8 -23 -27 -33 0
-8 -23 -27 -37 0
-8 -23 -33 -37 0
-8 -27 -33 -37 0
-18 -23 -27 -33 0
-18 -23 -27 -37 0
-18 -23 -33 -37 0
-18 -27 -33 -37 0
-23 -27 -33 -37 0
-1 -10 -16 -24 0
-1 -10 -16 -29 0
-1 -10 -16 -36 0
-1 -10 -16 -42 0
-1 -10 -24 -29 0
-1 -10 -24 -36 0
-1 -10 -24 -42 0
-1 -10 -29 -36 0
-1 -10 -29 -42 0
-1 -10 -36 -42 0
-1 -16 -24 -29 0
-1 -16 -24 -36 0
-1 -16 -24 -42 0
-1 -16 -29 -36 0
-1 -16 -29 -42 0
-1 -16 -36 -42 0
-1 -24 -29 -36 0
-1 -24 -29 -42 0
-1 -24 -36 -42 0
-1 -29 -36 -42 0
-10 -16 -24 -29 0
-10 -16 -24 -36 0
-10 -16 -24 -42 0
-10 -16 -29 -36 0
-10 -16 -29 -42 0
-10 -16 -36 -42 0
-10 -24 -29 -36 0
-10 -24 -29 -42 0
-10 -24 -36 -42 0
-10 -29 -36 -42 0
-16 -24 -29 -36 0
-16 -24 -29 -42 0
-16 -24 -36 -42 0
-16 -29 -36 -42 0
-24 -29 -36 -42 0
-2 -11 -17 -23 0
-2 -11 -17 -30 0
-2 -11 -17 -31 0
-2 -11 -17 -37 0
-2 -11 -23 -30 0
-2 -11 -23 -31 0
-2 -11 -23 -37 0
-2 -11 -30 -31 0
-2 -11 -30 -37 0
-2 -11 -31 -37 0
-2 -17 -23 -30 0
-2 -17 -23 -31 0
-2 -17 -23 -37 0
-2 -17 -30 -31 0
-2 -17 -30 -37 0
-2 -17 -31 -37 0
-2 -23 -30 -31 0
-2 -23 -30 -37 0
-2 -23 -31 -37 0
-2 -30 -31 -37 0
-11 -17 -23 -30 0
-11 -17 -23 -31 0
-11 -17 -23 -37 0
-11 -17 -30 -31 0
-11 -17 -30 -37 0
-11 -17 -31 -37 0
-11 -23 -30 -31 0
-11 -23 -30 -37 0
-11 -23 -31 -37 0
-11 -30 -31 -37 0
-17 -23 -30 -31 0
-17 -23 -30 -37 0
-17 -23 -31 -37 0
-17 -30 -31 -37 0
-23 -30 -31 -37 0
-3 -12 -18 -24 0
-3 -12 -18 -25 0
-3 -12 -18 -32 0
-3 -12 -18 -38 0
-3 -12 -24 -25 0
-3 -12 -24 -32 0
-3 -12 -24 -38 0
-3 -12 -25 -32 0
-3 -12 -25 -38 0
-3 -12 -32 -38 0
-3 -18 -24 -25 0
-3 -18 -24 -32 0
-3 -18 -24 -38 0
-3 -18 -25 -32 0
-3 -18 -25 -38 0
-3 -18 -32 -38 0
-3 -24 -25 -32 0
-3 -24 -25 -38 0
-3 -24 -32 -38 0
-3 -25 -32 -38 0
-12 -18 -24 -25 0
-12 -18 -24 -32 0
-12 -18 -24 -38 0
-12 -18 -25 -32 0
-12 -18 -25 -38 0
-12 -18 -32 -38 0
-12 -24 -25 -32 0
-12 -24 -25 -38 0
-12 -24 -32 -38 0
-12 -25 -32 -38 0
-18 -24 -25 -32 0
-18 -24 -25 -38 0
-18 -24 -32 -38 0
-18 -25 -32 -38 0
-24 -25 -32 -38 0
-4 -7 -13 -21 0
-4 -7 -13 -26 0
-4 -7 -13 -33 0
-4 -7 -13 -39 0
-4 -7 -21 -26 0
-4 -7 -21 -33 0
-4 -7 -21 -39 0
-4 -7 -26 -33 0
-4 -7 -26 -39 0
-4 -7 -33 -39 0
-4 -13 -21 -26 0
-4 -13 -21 -33 0
-4 -13 -21 -39 0
-4 -13 -26 -33 0
-4 -13 -26 -39 0
-4 -13 -33 -39 0
-4 -21 -26 -33 0
-4 -21 -26 -39 0
-4 -21 -33 -39 0
-4 -26 -33 -39 0
-7 -13 -21 -26 0
-7 -13 -21 -33 0
-7 -13 -21 -39 0
-7 -13 -26 -33 0
-7 -13 -26 -39 0
-7 -13 -33 -39 0
-7 -21 -26 -33 0
-7 -21 -26 -39 0
-7 -21 -33 -39 0
-7 -26 -33 -39 0
-13 -21 -26 -33 0
-13 -21 -26 -39 0
-13 -21 -33 -39 0
-13 -26 -33 -39 0
-21 -26 -33 -39 0
-5 -8 -14 -20 0
-5 -8 -14 -27 0
-5 -8 -14 -34 0
-5 -8 -14 -40 0
-5 -8 -20 -27 0
-5 -8 -20 -34 0
-5 -8 -20 -40 0
-5 -8 -27 -34 0
-5 -8 -27 -40 0
-5 -8 -34 -40 0
-5 -14 -20 -27 0
-5 -14 -20 -34 0
-5 -14 -20 -40 0
-5 -14 -27 -34 0
-5 -14 -27 -40 0
-5 -14 -34 -40 0
-5 -20 -27 -34 0
-5 -20 -27 -40 0
-5 -20 -34 -40 0
-5 -27 -34 -40 0
-8 -14 -20 -27 0
-8 -14 -20 -34 0
-8 -14 -20 -40 0
-8 -14 -27 -34 0
-8 -14 -27 -40 0
-8 -14 -34 -40 0
-8 -20 -27 -34 0
-8 -20 -27 -40 0
-8 -20 -34 -40 0
-8 -27 -34 -40 0
-14 -20 -27 -34 0
-14 -20 -27 -40 0
-14 -20 -34 -40 0
-14 -27 -34 -40 0
-20 -27 -34 -40 0
-6 -9 -15 -21 0
-6 -9 -15 -28 0
-6 -9 -15 -35 0
-6 -9 -15 -41 0
-6 -9 -21 -28 0
-6 -9 -21 -35 0
-6 -9 -21 -41 0
-6 -9 -28 -35 0
-6 -9 -28 -41 0
-6 -9 -35 -41 0
-6 -15 -21 -28 0
-6 -15 -21 -35 0
-6 -15 -21 -41 0
-6 -15 -28 -35 0
-6 -15 -28 -41 0
-6 -15 -35 -41 0
-6 -21 -28 -35 0
-6 -21 -28 -41 0
-6 -21 -35 -41 0
-6 -28 -35 -41 0
-9 -15 -21 -28 0
-9 -15 -21 -35 0
-9 -15 -21 -41 0
-9 -15 -28 -35 0
-9 -15 -28 -41 0
-9 -15 -35 -41 0
-9 -21 -28 -35 0
-9 -21 -28 -41 0
-9 -21 -35 -41 0
-9 -28 -35 -41 0
-15 -21 -28 -35 0
-15 -21 -28 -41 0
-15 -21 -35 -41 0
-15 -28 -35 -41 0
-21 -28 -35 -41 0
-1 -8 -18 -21 0
-1 -8 -18 -25 0
-1 -8 -18 -35 0
-1 -8 -18 -38 0
-1 -8 -21 -25 0
-1 -8 -21 -35 0
-1 -8 -21 -38 0
-1 -8 -25 -35 0
-1 -8 -25 -38 0
-1 -8 -35 -38 0
-1 -18 -21 -25 0
-1 -18 -21 -35 0
-1 -18 -21 -38 0
-1 -18 -25 -35 0
-1 -18 -25 -38 0
-1 -18 -35 -38 0
-1 -21 -25 -35 0
-1 -21 -25 -38 0
-1 -21 -35 -38 0
-1 -25 -35 -38 0
-8 -18 -21 -25 0
-8 -18 -21 -35 0
-8 -18 -21 -38 0
-8 -18 -25 -35 0
-8 -18 -25 -38 0
-8 -18 -35 -38 0
-8 -21 -25 -35 0
-8 -21 -25 -38 0
-8 -21 -35 -38 0
-8 -25 -35 -38 0
-18 -21 -25 -35 0
-18 -21 -25 -38 0
-18 -21 -35 -38 0
-18 -25 -35 -38 0
-21 -25 -35 -38 0
-2 -9 -13 -22 0
-2 -9 -13 -26 0
-2 -9 -13 -36 0
-2 -9 -13 -39 0
-2 -9 -22 -26 0
-2 -9 -22 -36 0
-2 -9 -22 -39 0
-2 -9 -26 -36 0
-2 -9 -26 -39 0
-2 -9 -36 -39 0
-2 -13 -22 -26 0
-2 -13 -22 -36 0
-2 -13 -22 -39 0
-2 -13 -26 -36 0
-2 -13 -26 -39 0
-2 -13 -36 -39 0
-2 -22 -26 -36 0
-2 -22 -26 -39 0
-2 -22 -36 -39 0
-2 -26 -36 -39 0
-9 -13 -22 -26 0
-9 -13 -22 -36 0
-9 -13 -22 -39 0
-9 -13 -26 -36 0
-9 -13 -26 -39 0
-9 -13 -36 -39 0
-9 -22 -26 -36 0
-9 -22 -26 -39 0
-9 -22 -36 -39 0
-9 -26 -36 -39 0
-13 -22 -26 -36 0
-13 -22 -26 -39 0
-13 -22 -36 -39 0
-13 -26 -36 -39 0
-22 -26 -36 -39 0
-3 -10 -14 -23 0
-3 -10 -14 -27 0
-3 -10 -14 -31 0
-3 -10 -14 -40 0
-3 -10 -23 -27 0
-3 -10 -23 -31 0
-3 -10 -23 -40 0
-3 -10 -27 -31 0
-3 -10 -27 -40 0
-3 -10 -31 -40 0
-3 -14 -23 -27 0
-3 -14 -23 -31 0
-3 -14 -23 -40 0
-3 -14 -27 -31 0
-3 -14 -27 -40 0
-3 -14 -31 -40 0
-3 -23 -27 -31 0
-3 -23 -27 -40 0
-3 -23 -31 -40 0
-3 -27 -31 -40 0
-10 -14 -23 -27 0
-10 -14 -23 -31 0
-10 -14 -23 -40 0
-10 -14 -27 -31 0
-10 -14 -27 -40 0
-10 -14 -31 -40 0
-10 -23 -27 -31 0
-10 -23 -27 -40 0
-10 -23 -31 -40 0
-10 -27 -31 -40 0
-14 -23 -27 -31 0
-14 -23 -27 -40 0
-14 -23 -31 -40 0
-14 -27 -31 -40 0
-23 -27 -31 -40 0
-4 -11 -15 -24 0
-4 -11 -15 -28 0
-4 -11 -15 -32 0
-4 -11 -15 -41 0
-4 -11 -24 -28 0
-4 -11 -24 -32 0
-4 -11 -24 -41 0
-4 -11 -28 -32 0
-4 -11 -28 -41 0
-4 -11 -32 -41 0
-4 -15 -24 -28 0
-4 -15 -24 -32 0
-4 -15 -24 -41 0
-4 -15 -28 -32 0
-4 -15 -28 -41 0
-4 -15 -32 -41 0
-4 -24 -28 -32 0
-4 -24 -28 -41 0
-4 -24 -32 -41 0
-4 -28 -32 -41 0
-11 -15 -24 -28 0
-11 -15 -24 -32 0
-11 -15 -24 -41 0
-11 -15 -28 -32 0
-11 -15 -28 -41 0
-11 -15 -32 -41 0
-11 -24 -28 -32 0
-11 -24 -28 -41 0
-11 -24 -32 -41 0
-11 -28 -32 -41 0
-15 -24 -28 -32 0
-15 -24 -28 -41 0
-15 -24 -32 -41 0
-15 -28 -32 -41 0
-24 -28 -32 -41 0
-5 -12 -16 -19 0
-5 -12 -16 -29 0
-5 -12 -16 -33 0
-5 -12 -16 -42 0
-5 -12 -19 -29 0
-5 -12 -19 -33 0
-5 -12 -19 -42 0
-5 -12 -29 -33 0
-5 -12 -29 -42 0
-5 -12 -33 -42 0
-5 -16 -19 -29 0
-5 -16 -19 -33 0
-5 -16 -19 -42 0
-5 -16 -29 -33 0
-5 -16 -29 -42 0
-5 -16 -33 -42 0
-5 -19 -29 -33 0
-5 -19 -29 -42 0
-5 -19 -33 -42 0
-5 -29 -33 -42 0
-12 -16 -19 -29 0
-12 -16 -19 -33 0
-12 -16 -19 -42 0
-12 -16 -29 -33 0
-12 -16 -29 -42 0
-12 -16 -33 -42 0
-12 -19 -29 -33 0
-12 -19 -29 -42 0
-12 -19 -33 -42 0
-12 -29 -33 -42 0
-16 -19 -29 -33 0
-16 -19 -29 -42 0
-16 -19 -33 -42 0
-16 -29 -33 -42 0
-19 -29 -33 -42 0
-6 -7 -17 -20 0
-6 -7 -17 -30 0
-6 -7 -17 -34 0
-6 -7 -17 -37 0
-6 -7 -20 -30 0
-6 -7 -20 -34 0
-6 -7 -20 -37 0
-6 -7 -30 -34 0
-6 -7 -30 -37 0
-6 -7 -34 -37 0
-6 -17 -20 -30 0
-6 -17 -20 -34 0
-6 -17 -20 -37 0
-6 -17 -30 -34 0
-6 -17 -30 -37 0
-6 -17 -34 -37 0
-6 -20 -30 -34 0
-6 -20 -30 -37 0
-6 -20 -34 -37 0
-6 -30 -34 -37 0
-7 -17 -20 -30 0
-7 -17 -20 -34 0
-7 -17 -20 -37 0
-7 -17 -30 -34 0
-7 -17 -30 -37 0
-7 -17 -34 -37 0
-7 -20 -30 -34 0
-7 -20 -30 -37 0
-7 -20 -34 -37 0
-7 -30 -34 -37 0
-17 -20 -30 -34 0
-17 -20 -30 -37 0
-17 -20 -34 -37 0
-17 -30 -34 -37 0
-20 -30 -34 -37 0
-1 -9 -17 -22 0
-1 -9 -17 -28 0
-1 -9 -17 -36 0
-1 -9 -17 -37 0
-1 -9 -22 -28 0
-1 -9 -22 -36 0
-1 -9 -22 -37 0
-1 -9 -28 -36 0
-1 -9 -28 -37 0
-1 -9 -36 -37 0
-1 -17 -22 -28 0
-1 -17 -22 -36 0
-1 -17 -22 -37 0
-1 -17 -28 -36 0
-1 -17 -28 -37 0
-1 -17 -36 -37 0
-1 -22 -28 -36 0
-1 -22 -28 -37 0
-1 -22 -36 -37 0
-1 -28 -36 -37 0
-9 -17 -22 -28 0
-9 -17 -22 -36 0
-9 -17 -22 -37 0
-9 -17 -28 -36 0
-9 -17 -28 -37 0
-9 -17 -36 -37 0
-9 -22 -28 -36 0
-9 -22 -28 -37 0
-9 -22 -36 -37 0
-9 -28 -36 -37 0
-17 -22 -28 -36 0
-17 -22 -28 -37 0
-17 -22 -36 -37 0
-17 -28 -36 -37 0
-22 -28 -36 -37 0
-2 -10 -18 -23 0
-2 -10 -18 -29 0
-2 -10 -18 -31 0
-2 -10 -18 -38 0
-2 -10 -23 -29 0
-2 -10 -23 -31 0
-2 -10 -23 -38 0
-2 -10 -29 -31 0
-2 -10 -29 -38 0
-2 -10 -31 -38 0
-2 -18 -23 -29 0
-2 -18 -23 -31 0
-2 -18 -23 -38 0
-2 -18 -29 -31 0
-2 -18 -29 -38 0
-2 -18 -31 -38 0
-2 -23 -29 -31 0
-2 -23 -29 -38 0
-2 -23 -31 -38 0
-2 -29 -31 -38 0
-10 -18 -23 -29 0
-10 -18 -23 -31 0
-10 -18 -23 -38 0
-10 -18 -29 -31 0
-10 -18 -29 -38 0
-10 -18 -31 -38 0
-10 -23 -29 -31 0
-10 -23 -29 -38 0
-10 -23 -31 -38 0
-10 -29 -31 -38 0
-18 -23 -29 -31 0
-18 -23 -29 -38 0
-18 -23 -31 -38 0
-18 -29 -31 -38 0
-23 -29 -31 -38 0
-3 -11 -13 -24 0
-3 -11 -13 -30 0
-3 -11 -13 -32 0
-3 -11 -13 -39 0
-3 -11 -24 -30 0
-3 -11 -24 -32 0
-3 -11 -24 -39 0
-3 -11 -30 -32 0
-3 -11 -30 -39 0
-3 -11 -32 -39 0
-3 -13 -24 -30 0
-3 -13 -24 -32 0
-3 -13 -24 -39 0
-3 -13 -30 -32 0
-3 -13 -30 -39 0
-3 -13 -32 -39 0
-3 -24 -30 -32 0
-3 -24 -30 -39 0
-3 -24 -32 -39 0
-3 -30 -32 -39 0
-11 -13 -24 -30 0
-11 -13 -24 -32 0
-11 -13 -24 -39 0
-11 -13 -30 -32 0
-11 -13 -30 -39 0
-11 -13 -32 -39 0
-11 -24 -30 -32 0
-11 -24 -30 -39 0
-11 -24 -32 -39 0
-11 -30 -32 -39 0
-13 -24 -30 -32 0
-13 -24 -30 -39 0
-13 -24 -32 -39 0
-13 -30 -32 -39 0
-24 -30 -32 -39 0
-4 -12 -14 -19 0
-4 -12 -14 -25 0
-4 -12 -14 -33 0
-4 -12 -14 -40 0
-4 -12 -19 -25 0
-4 -12 -19 -33 0
-4 -12 -19 -40 0
-4 -12 -25 -33 0
-4 -12 -25 -40 0
-4 -12 -33 -40 0
-4 -14 -19 -25 0
-4 -14 -19 -33 0
-4 -14 -19 -40 0
-4 -14 -25 -33 0
-4 -14 -25 -40 0
-4 -14 -33 -40 0
-4 -19 -25 -33 0
-4 -19 -25 -40 0
-4 -19 -33 -40 0
-4 -25 -33 -40 0
-12 -14 -19 -25 0
-12 -14 -19 -33 0
-12 -14 -19 -40 0
-12 -14 -25 -33 0
-12 -14 -25 -40 0
-12 -14 -33 -40 0
-12 -19 -25 -33 0
-12 -19 -25 -40 0
-12 -19 -33 -40 0
-12 -25 -33 -40 0
-14 -19 -25 -33 0
-14 -19 -25 -40 0
-14 -19 -33 -40 0
-14 -25 -33 -40 0
-19 -25 -33 -40 0
-5 -7 -15 -20 0
-5 -7 -15 -26 0
-5 -7 -15 -34 0
-5 -7 -15 -41 0
-5 -7 -20 -26 0
-5 -7 -20 -34 0
-5 -7 -20 -41 0
-5 -7 -26 -34 0
-5 -7 -26 -41 0
-5 -7 -34 -41 0
-5 -15 -20 -26 0
-5 -15 -20 -34 0
-5 -15 -20 -41 0
-5 -15 -26 -34 0
-5 -15 -26 -41 0
-5 -15 -34 -41 0
-5 -20 -26 -34 0
-5 -20 -26 -41 0
-5 -20 -34 -41 0
-5 -26 -34 -41 0
-7 -15 -20 -26 0
-7 -15 -20 -34 0
-7 -15 -20 -41 0
-7 -15 -26 -34 0
-7 -15 -26 -41 0
-7 -15 -34 -41 0
-7 -20 -26 -34 0
-7 -20 -26 -41 0
-7 -20 -34 -41 0
-7 -26 -34 -41 0
-15 -20 -26 -34 0
-15 -20 -26 -41 0
-15 -20 -34 -41 0
-15 -26 -34 -41 0
-20 -26 -34 -41 0
-6 -8 -16 -21 0
-6 -8 -16 -27 0
-6 -8 -16 -35 0
-6 -8 -16 -42 0
-6 -8 -21 -27 0
-6 -8 -21 -35 0
-6 -8 -21 -42 0
-6 -8 -27 -35 0
-6 -8 -27 -42 0
-6 -8 -35 -42 0
-6 -16 -21 -27 0
-6 -16 -21 -35 0
-6 -16 -21 -42 0
-6 -16 -27 -35 0
-6 -16 -27 -42 0
-6 -16 -35 -42 0
-6 -21 -27 -35 0
-6 -21 -27 -42 0
-6 -21 -35 -42 0
-6 -27 -35 -42 0
-8 -16 -21 -27 0
-8 -16 -21 -35 0
-8 -16 -21 -42 0
-8 -16 -27 -35 0
-8 -16 -27 -42 0
-8 -16 -35 -42 0
-8 -21 -27 -35 0
-8 -21 -27 -42 0
-8 -21 -35 -42 0
-8 -27 -35 -42 0
-16 -21 -27 -35 0
-16 -21 -27 -42 0
-16 -21 -35 -42 0
-16 -27 -35 -42 0
-21 -27 -35 -42 0
-1 -8 -17 -19 0
-1 -8 -17 -29 0
-1 -8 -17 -34 0
-1 -8 -17 -40 0
-1 -8 -19 -29 0
-1 -8 -19 -34 0
-1 -8 -19 -40 0
-1 -8 -29 -34 0
-1 -8 -29 -40 0
-1 -8 -34 -40 0
-1 -17 -19 -29 0
-1 -17 -19 -34 0
-1 -17 -19 -40 0
-1 -17 -29 -34 0
-1 -17 -29 -40 0
-1 -17 -34 -40 0
-1 -19 -29 -34 0
-1 -19 -29 -40 0
-1 -19 -34 -40 0
-1 -29 -34 -40 0
-8 -17 -19 -29 0
-8 -17 -19 -34 0
-8 -17 -19 -40 0
-8 -17 -29 -34 0
-8 -17 -29 -40 0
-8 -17 -34 -40 0
-8 -19 -29 -34 0
-8 -19 -29 -40 0
-8 -19 -34 -40 0
-8 -29 -34 -40 0
-17 -19 -29 -34 0
-17 -19 -29 -40 0
-17 -19 -34 -40 0
-17 -29 -34 -40 0
-19 -29 -34 -40 0
-2 -9 -18 -20 0
-2 -9 -18 -30 0
-2 -9 -18 -35 0
-2 -9 -18 -41 0
-2 -9 -20 -30 0
-2 -9 -20 -35 0
-2 -9 -20 -41 0
-2 -9 -30 -35 0
-2 -9 -30 -41 0
-2 -9 -35 -41 0
-2 -18 -20 -30 0
-2 -18 -20 -35 0
-2 -18 -20 -41 0
-2 -18 -30 -35 0
-2 -18 -30 -41 0
-2 -18 -35 -41 0
-2 -20 -30 -35 0
-2 -20 -30 -41 0
-2 -20 -35 -41 0
-2 -30 -35 -41 0
-9 -18 -20 -30 0
-9 -18 -20 -35 0
-9 -18 -20 -41 0
-9 -18 -30 -35 0
-9 -18 -30 -41 0
-9 -18 -35 -41 0
-9 -20 -30 -35 0
-9 -20 -30 -41 0
-9 -20 -35 -41 0
-9 -30 -35 -41 0
-18 -20 -30 -35 0
-18 -20 -30 -41 0
-18 -20 -35 -41 0
-18 -30 -35 -41 0
-20 -30 -35 -41 0
-3 -10 -13 -21 0
-3 -10 -13 -25 0
-3 -10 -13 -36 0
-3 -10 -13 -42 0
-3 -10 -21 -25 0
-3 -10 -21 -36 0
-3 -10 -21 -42 0
-3 -10 -25 -36 0
-3 -10 -25 -42 0
-3 -10 -36 -42 0
-3 -13 -21 -25 0
-3 -13 -21 -36 0
-3 -13 -21 -42 0
-3 -13 -25 -36 0
-3 -13 -25 -42 0
-3 -13 -36 -42 0
-3 -21 -25 -36 0
-3 -21 -25 -42 0
-3 -21 -36 -42 0
-3 -25 -36 -42 0
-10 -13 -21 -25 0
-10 -13 -21 -36 0
-10 -13 -21 -42 0
-10 -13 -25 -36 0
-10 -13 -25 -42 0
-10 -13 -36 -42 0
-10 -21 -25 -36 0
-10 -21 -25 -42 0
-10 -21 -36 -42 0
-10 -25 -36 -42 0
-13 -21 -25 -36 0
-13 -21 -25 -42 0
-13 -21 -36 -42 0
-13 -25 -36 -42 0
-21 -25 -36 -42 0
-4 -11 -14 -22 0
-4 -11 -14 -26 0
-4 -11 -14 -31 0
-4 -11 -14 -37 0
-4 -11 -22 -26 0
-4 -11 -22 -31 0
-4 -11 -22 -37 0
-4 -11 -26 -31 0
-4 -11 -26 -37 0
-4 -11 -31 -37 0
-4 -14 -22 -26 0
-4 -14 -22 -31 0
-4 -14 -22 -37 0
-4 -14 -26 -31 0
-4 -14 -26 -37 0
-4 -14 -31 -37 0
-4 -22 -26 -31 0
-4 -22 -26 -37 0
-4 -22 -31 -37 0
-4 -26 -31 -37 0
-11 -14 -22 -26 0
-11 -14 -22 -31 0
-11 -14 -22 -37 0
-11 -14 -26 -31 0
-11 -14 -26 -37 0
-11 -14 -31 -37 0
-11 -22 -26 -31 0
-11 -22 -26 -37 0
-11 -22 -31 -37 0
-11 -26 -31 -37 0
-14 -22 -26 -31 0
-14 -22 -26 -37 0
-14 -22 -31 -37 0
-14 -26 -31 -37 0
-22 -26 -31 -37 0
-5 -12 -15 -23 0
-5 -12 -15 -27 0
-5 -12 -15 -32 0
-5 -12 -15 -38 0
-5 -12 -23 -27 0
-5 -12 -23 -32 0
-5 -12 -23 -38 0
-5 -12 -27 -32 0
-5 -12 -27 -38 0
-5 -12 -32 -38 0
-5 -15 -23 -27 0
-5 -15 -23 -32 0
-5 -15 -23 -38 0
-5 -15 -27 -32 0
-5 -15 -27 -38 0
-5 -15 -32 -38 0
-5 -23 -27 -32 0
-5 -23 -27 -38 0
-5 -23 -32 -38 0
-5 -27 -32 -38 0
-12 -15 -23 -27 0
-12 -15 -23 -32 0
-12 -15 -23 -38 0
-12 -15 -27 -32 0
-12 -15 -27 -38 0
-12 -15 -32 -38 0
-12 -23 -27 -32 0
-12 -23 -27 -38 0
-12 -23 -32 -38 0
-12 -27 -32 -38 0
-15 -23 -27 -32 0
-15 -23 -27 -38 0
-15 -23 -32 -38 0
-15 -27 -32 -38 0
-23 -27 -32 -38 0
-6 -7 -16 -24 0
-6 -7 -16 -28 0
-6 -7 -16 -33 0
-6 -7 -16 -39 0
-6 -7 -24 -28 0
-6 -7 -24 -33 0
-6 -7 -24 -39 0
-6 -7 -28 -33 0
-6 -7 -28 -39 0
-6 -7 -33 -39 0
-6 -16 -24 -28 0
-6 -16 -24 -33 0
-6 -16 -24 -39 0
-6 -16 -28 -33 0
-6 -16 -28 -39 0
-6 -16 -33 -39 0
-6 -24 -28 -33 0
-6 -24 -28 -39 0
-6 -24 -33 -39 0
-6 -28 -33 -39 0
-7 -16 -24 -28 0
-7 -16 -24 -33 0
-7 -16 -24 -39 0
-7 -16 -28 -33 0
-7 -16 -28 -39 0
-7 -16 -33 -39 0
-7 -24 -28 -33 0
-7 -24 -28 -39 0
-7 -24 -33 -39 0
-7 -28 -33 -39 0
-16 -24 -28 -33 0
-16 -24 -28 -39 0
-16 -24 -33 -39 0
-16 -28 -33 -39 0
-24 -28 -33 -39 0
-1 -10 -14 -20 0
-1 -10 -14 -28 0
-1 -10 -14 -32 0
-1 -10 -14 -42 0
-1 -10 -20 -28 0
-1 -10 -20 -32 0
-1 -10 -20 -42 0
-1 -10 -28 -32 0
-1 -10 -28 -42 0
-1 -10 -32 -42 0
-1 -14 -20 -28 0
-1 -14 -20 -32 0
-1 -14 -20 -42 0
-1 -14 -28 -32 0
-1 -14 -28 -42 0
-1 -14 -32 -42 0
-1 -20 -28 -32 0
-1 -20 -28 -42 0
-1 -20 -32 -42 0
-1 -28 -32 -42 0
-10 -14 -20 -28 0
-10 -14 -20 -32 0
-10 -14 -20 -42 0
-10 -14 -28 -32 0
-10 -14 -28 -42 0
-10 -14 -32 -42 0
-10 -20 -28 -32 0
-10 -20 -28 -42 0
-10 -20 -32 -42 0
-10 -28 -32 -42 0
-14 -20 -28 -32 0
-14 -20 -28 -42 0
-14 -20 -32 -42 0
-14 -28 -32 -42 0
-20 -28 -32 -42 0
-2 -11 -15 -21 0
-2 -11 -15 -29 0
-2 -11 -15 -33 0
-2 -11 -15 -37 0
-2 -11 -21 -29 0
-2 -11 -21 -33 0
-2 -11 -21 -37 0
-2 -11 -29 -33 0
-2 -11 -29 -37 0
-2 -11 -33 -37 0
-2 -15 -21 -29 0
-2 -15 -21 -33 0
-2 -15 -21 -37 0
-2 -15 -29 -33 0
-2 -15 -29 -37 0
-2 -15 -33 -37 0
-2 -21 -29 -33 0
-2 -21 -29 -37 0
-2 -21 -33 -37 0
-2 -29 -33 -37 0
-11 -15 -21 -29 0
-11 -15 -21 -33 0
-11 -15 -21 -37 0
-11 -15 -29 -33 0
-11 -15 -29 -37 0
-11 -15 -33 -37 0
-11 -21 -29 -33 0
-11 -21 -29 -37 0
-11 -21 -33 -37 0
-11 -29 -33 -37 0
-15 -21 -29 -33 0
-15 -21 -29 -37 0
-15 -21 -33 -37 0
-15 -29 -33 -37 0
-21 -29 -33 -37 0
-3 -12 -16 -22 0
-3 -12 -16 -30 0
-3 -12 -16 -34 0
-3 -12 -16 -38 0
-3 -12 -22 -30 0
-3 -12 -22 -34 0
-3 -12 -22 -38 0
-3 -12 -30 -34 0
-3 -12 -30 -38 0
-3 -12 -34 -38 0
-3 -16 -22 -30 0
-3 -16 -22 -34 0
-3 -16 -22 -38 0
-3 -16 -30 -34 0
-3 -16 -30 -38 0
-3 -16 -34 -38 0
-3 -22 -30 -34 0
-3 -22 -30 -38 0
-3 -22 -34 -38 0
-3 -30 -34 -38 0
-12 -16 -22 -30 0
-12 -16 -22 -34 0
-12 -16 -22 -38 0
-12 -16 -30 -34 0
-12 -16 -30 -38 0
-12 -16 -34 -38 0
-12 -22 -30 -34 0
-12 -22 -30 -38 0
-12 -22 -34 -38 0
-12 -30 -34 -38 0
-16 -22 -30 -34 0
-16 -22 -30 -38 0
-16 -22 -34 -38 0
-16 -30 -34 -38 0
-22 -30 -34 -38 0
-4 -7 -17 -23 0
-4 -7 -17 -25 0
-4 -7 -17 -35 0
-4 -7 -17 -39 0
-4 -7 -23 -25 0
-4 -7 -23 -35 0
-4 -7 -23 -39 0
-4 -7 -25 -35 0
-4 -7 -25 -39 0
-4 -7 -35 -39 0
-4 -17 -23 -25 0
-4 -17 -23 -35 0
-4 -17 -23 -39 0
-4 -17 -25 -35 0
-4 -17 -25 -39 0
-4 -17 -35 -39 0
-4 -23 -25 -35 0
-4 -23 -25 -39 0
-4 -23 -35 -39 0
-4 -25 -35 -39 0
-7 -17 -23 -25 0
-7 -17 -23 -35 0
-7 -17 -23 -39 0
-7 -17 -25 -35 0
-7 -17 -25 -39 0
-7 -17 -35 -39 0
-7 -23 -25 -35 0
-7 -23 -25 -39 0
-7 -23 -35 -39 0
-7 -25 -35 -39 0
-17 -23 -25 -35 0
-17 -23 -25 -39 0
-17 -23 -35 -39 0
-17 -25 -35 -39 0
-23 -25 -35 -39 0
-5 -8 -18 -24 0
-5 -8 -18 -26 0
-5 -8 -18 -36 0
-5 -8 -18 -40 0
-5 -8 -24 -26 0
-5 -8 -24 -36 0
-5 -8 -24 -40 0
-5 -8 -26 -36 0
-5 -8 -26 -40 0
-5 -8 -36 -40 0
-5 -18 -24 -26 0
-5 -18 -24 -36 0
-5 -18 -24 -40 0
-5 -18 -26 -36 0
-5 -18 -26 -40 0
-5 -18 -36 -40 0
-5 -24 -26 -36 0
-5 -24 -26 -40 0
-5 -24 -36 -40 0
-5 -26 -36 -40 0
-8 -18 -24 -26 0
-8 -18 -24 -36 0
-8 -18 -24 -40 0
-8 -18 -26 -36 0
-8 -18 -26 -40 0
-8 -18 -36 -40 0
-8 -24 -26 -36 0
-8 -24 -26 -40 0
-8 -24 -36 -40 0
-8 -26 -36 -40 0
-18 -24 -26 -36 0
-18 -24 -26 -40 0
-18 -24 -36 -40 0
-18 -26 -36 -40 0
-24 -26 -36 -40 0
-6 -9 -13 -19 0
-6 -9 -13 -27 0
-6 -9 -13 -31 0
-6 -9 -13 -41 0
-6 -9 -19 -27 0
-6 -9 -19 -31 0
-6 -9 -19 -41 0
-6 -9 -27 -31 0
-6 -9 -27 -41 0
-6 -9 -31 -41 0
-6 -13 -19 -27 0
-6 -13 -19 -31 0
-6 -13 -19 -41 0
-6 -13 -27 -31 0
-6 -13 -27 -41 0
-6 -13 -31 -41 0
-6 -19 -27 -31 0
-6 -19 -27 -41 0
-6 -19 -31 -41 0
-6 -27 -31 -41 0
-9 -13 -19 -27 0
-9 -13 -19 -31 0
-9 -13 -19 -41 0
-9 -13 -27 -31 0
-9 -13 -27 -41 0
-9 -13 -31 -41 0
-9 -19 -27 -31 0
-9 -19 -27 -41 0
-9 -19 -31 -41 0
-9 -27 -31 -41 0
-13 -19 -27 -31 0
-13 -19 -27 -41 0
-13 -19 -31 -41 0
-13 -27 -31 -41 0
-19 -27 -31 -41 0
-1 -9 -15 -22 0
-1 -9 -15 -29 0
-1 -9 -15 -32 0
-1 -9 -15 -38 0
-1 -9 -22 -29 0
-1 -9 -22 -32 0
-1 -9 -22 -38 0
-1 -9 -29 -32 0
-1 -9 -29 -38 0
-1 -9 -32 -38 0
-1 -15 -22 -29 0
-1 -15 -22 -32 0
-1 -15 -22 -38 0
-1 -15 -29 -32 0
-1 -15 -29 -38 0
-1 -15 -32 -38 0
-1 -22 -29 -32 0
-1 -22 -29 -38 0
-1 -22 -32 -38 0
-1 -29 -32 -38 0
-9 -15 -22 -29 0
-9 -15 -22 -32 0
-9 -15 -22 -38 0
-9 -15 -29 -32 0
-9 -15 -29 -38 0
-9 -15 -32 -38 0
-9 -22 -29 -32 0
-9 -22 -29 -38 0
-9 -22 -32 -38 0
-9 -29 -32 -38 0
-15 -22 -29 -32 0
-15 -22 -29 -38 0
-15 -22 -32 -38 0
-15 -29 -32 -38 0
-22 -29 -32 -38 0
-2 -10 -16 -23 0
-2 -10 -16 -30 0
-2 -10 -16 -33 0
-2 -10 -16 -39 0
-2 -10 -23 -30 0
-2 -10 -23 -33 0
-2 -10 -23 -39 0
-2 -10 -30 -33 0
-2 -10 -30 -39 0
-2 -10 -33 -39 0
-2 -16 -23 -30 0
-2 -16 -23 -33 0
-2 -16 -23 -39 0
-2 -16 -30 -33 0
-2 -16 -30 -39 0
-2 -16 -33 -39 0
-2 -23 -30 -33 0
-2 -23 -30 -39 0
-2 -23 -33 -39 0
-2 -30 -33 -39 0
-10 -16 -23 -30 0
-10 -16 -23 -33 0
-10 -16 -23 -39 0
-10 -16 -30 -33 0
-10 -16 -30 -39 0
-10 -16 -33 -39 0
-10 -23 -30 -33 0
-10 -23 -30 -39 0
-10 -23 -33 -39 0
-10 -30 -33 -39 0
-16 -23 -30 -33 0
-16 -23 -30 -39 0
-16 -23 -33 -39 0
-16 -30 -33 -39 0
-23 -30 -33 -39 0
-3 -11 -17 -24 0
-3 -11 -17 -25 0
-3 -11 -17 -34 0
-3 -11 -17 -40 0
-3 -11 -24 -25 0
-3 -11 -24 -34 0
-3 -11 -24 -40 0
-3 -11 -25 -34 0
-3 -11 -25 -40 0
-3 -11 -34 -40 0
-3 -17 -24 -25 0
-3 -17 -24 -34 0
-3 -17 -24 -40 0
-3 -17 -25 -34 0
-3 -17 -25 -40 0
-3 -17 -34 -40 0
-3 -24 -25 -34 0
-3 -24 -25 -40 0
-3 -24 -34 -40 0
-3 -25 -34 -40 0
-11 -17 -24 -25 0
-11 -17 -24 -34 0
-11 -17 -24 -40 0
-11 -17 -25 -34 0
-11 -17 -25 -40 0
-11 -17 -34 -40 0
-11 -24 -25 -34 0
-11 -24 -25 -40 0
-11 -24 -34 -40 0
-11 -25 -34 -40 0
-17 -24 -25 -34 0
-17 -24 -25 -40 0
-17 -24 -34 -40 0
-17 -25 -34 -40 0
-24 -25 -34 -40 0
-4 -12 -18 -19 0
-4 -12 -18 -26 0
-4 -12 -18 -35 0
-4 -12 -18 -41 0
-4 -12 -19 -26 0
-4 -12 -19 -35 0
-4 -12 -19 -41 0
-4 -12 -26 -35 0
-4 -12 -26 -41 0
-4 -12 -35 -41 0
-4 -18 -19 -26 0
-4 -18 -19 -35 0
-4 -18 -19 -41 0
-4 -18 -26 -35 0
-4 -18 -26 -41 0
-4 -18 -35 -41 0
-4 -19 -26 -35 0
-4 -19 -26 -41 0
-4 -19 -35 -41 0
-4 -26 -35 -41 0
-12 -18 -19 -26 0
-12 -18 -19 -35 0
-12 -18 -19 -41 0
-12 -18 -26 -35 0
-12 -18 -26 -41 0
-12 -18 -35 -41 0
-12 -19 -26 -35 0
-12 -19 -26 -41 0
-12 -19 -35 -41 0
-12 -26 -35 -41 0
-18 -19 -26 -35 0
-18 -19 -26 -41 0
-18 -19 -35 -41 0
-18 -26 -35 -41 0
-19 -26 -35 -41 0
-5 -7 -13 -20 0
-5 -7 -13 -27 0
-5 -7 -13 -36 0
-5 -7 -13 -42 0
-5 -7 -20 -27 0
-5 -7 -20 -36 0
-5 -7 -20 -42 0
-5 -7 -27 -36 0
-5 -7 -27 -42 0
-5 -7 -36 -42 0
-5 -13 -20 -27 0
-5 -13 -20 -36 0
-5 -13 -20 -42 0
-5 -13 -27 -36 0
-5 -13 -27 -42 0
-5 -13 -36 -42 0
-5 -20 -27 -36 0
-5 -20 -27 -42 0
-5 -20 -36 -42 0
-5 -27 -36 -42 0
-7 -13 -20 -27 0
-7 -13 -20 -36 0
-7 -13 -20 -42 0
-7 -13 -27 -36 0
-7 -13 -27 -42 0
-7 -13 -36 -42 0
-7 -20 -27 -36 0
-7 -20 -27 -42 0
-7 -20 -36 -42 0
-7 -27 -36 -42 0
-13 -20 -27 -36 0
-13 -20 -27 -42 0
-13 -20 -36 -42 0
-13 -27 -36 -42 0
-20 -27 -36 -42 0
-6 -8 -14 -21 0
-6 -8 -14 -28 0
-6 -8 -14 -31 0
-6 -8 -14 -37 0
-6 -8 -21 -28 0
-6 -8 -21 -31 0
-6 -8 -21 -37 0
-6 -8 -28 -31 0
-6 -8 -28 -37 0
-6 -8 -31 -37 0
-6 -14 -21 -28 0
-6 -14 -21 -31 0
-6 -14 -21 -37 0
-6 -14 -28 -31 0
-6 -14 -28 -37 0
-6 -14 -31 -37 0
-6 -21 -28 -31 0
-6 -21 -28 -37 0
-6 -21 -31 -37 0
-6 -28 -31 -37 0
-8 -14 -21 -28 0
-8 -14 -21 -31 0
-8 -14 -21 -37 0
-8 -14 -28 -31 0
-8 -14 -28 -37 0
-8 -14 -31 -37 0
-8 -21 -28 -31 0
-8 -21 -28 -37 0
-8 -21 -31 -37 0
-8 -28 -31 -37 0
-14 -21 -28 -31 0
-14 -21 -28 -37 0
-14 -21 -31 -37 0
-14 -28 -31 -37 0
-21 -28 -31 -37 0
-1 -11 -15 -19 0
-1 -11 -15 -25 0
-1 -11 -15 -31 0
-1 -11 -15 -39 0
-1 -11 -19 -25 0
-1 -11 -19 -31 0
-1 -11 -19 -39 0
-1 -11 -25 -31 0
-1 -11 -25 -39 0
-1 -11 -31 -39 0
-1 -15 -19 -25 0
-1 -15 -19 -31 0
-1 -15 -19 -39 0
-1 -15 -25 -31 0
-1 -15 -25 -39 0
-1 -15 -31 -39 0
-1 -19 -25 -31 0
-1 -19 -25 -39 0
-1 -19 -31 -39 0
-1 -25 -31 -39 0
-11 -15 -19 -25 0
-11 -15 -19 -31 0
-11 -15 -19 -39 0
-11 -15 -25 -31 0
-11 -15 -25 -39 0
-11 -15 -31 -39 0
-11 -19 -25 -31 0
-11 -19 -25 -39 0
-11 -19 -31 -39 0
-11 -25 -31 -39 0
-15 -19 -25 -31 0
-15 -19 -25 -39 0
-15 -19 -31 -39 0
-15 -25 -31 -39 0
-19 -25 -31 -39 0
-2 -12 -16 -20 0
-2 -12 -16 -26 0
-2 -12 -16 -32 0
-2 -12 -16 -37 0
-2 -12 -20 -26 0
-2 -12 -20 -32 0
-2 -12 -20 -37 0
-2 -12 -26 -32 0
-2 -12 -26 -37 0
-2 -12 -32 -37 0
-2 -16 -20 -26 0
-2 -16 -20 -32 0
-2 -16 -20 -37 0
-2 -16 -26 -32 0
-2 -16 -26 -37 0
-2 -16 -32 -37 0
-2 -20 -26 -32 0
-2 -20 -26 -37 0
-2 -20 -32 -37 0
-2 -26 -32 -37 0
-12 -16 -20 -26 0
-12 -16 -20 -32 0
-12 -16 -20 -37 0
-12 -16 -26 -32 0
-12 -16 -26 -37 0
-12 -16 -32 -37 0
-12 -20 -26 -32 0
-12 -20 -26 -37 0
-12 -20 -32 -37 0
-12 -26 -32 -37 0
-16 -20 -26 -32 0
-16 -20 -26 -37 0
-16 -20 -32 -37 0
-16 -26 -32 -37 0
-20 -26 -32 -37 0
-3 -7 -17 -21 0
-3 -7 -17 -27 0
-3 -7 -17 -33 0
-3 -7 -17 -41 0
-3 -7 -21 -27 0
-3 -7 -21 -33 0
-3 -7 -21 -41 0
-3 -7 -27 -33 0
-3 -7 -27 -41 0
-3 -7 -33 -41 0
-3 -17 -21 -27 0
-3 -17 -21 -33 0
-3 -17 -21 -41 0
-3 -17 -27 -33 0
-3 -17 -27 -41 0
-3 -17 -33 -41 0
-3 -21 -27 -33 0
-3 -21 -27 -41 0
-3 -21 -33 -41 0
-3 -27 -33 -41 0
-7 -17 -21 -27 0
-7 -17 -21 -33 0
-7 -17 -21 -41 0
-7 -17 -27 -33 0
-7 -17 -27 -41 0
-7 -17 -33 -41 0
-7 -21 -27 -33 0
-7 -21 -27 -41 0
-7 -21 -33 -41 0
-7 -27 -33 -41 0
-17 -21 -27 -33 0
-17 -21 -27 -41 0
-17 -21 -33 -41 0
-17 -27 -33 -41 0
-21 -27 -33 -41 0
-4 -8 -18 -22 0
-4 -8 -18 -28 0
-4 -8 -18 -34 0
-4 -8 -18 -39 0
-4 -8 -22 -28 0
-4 -8 -22 -34 0
-4 -8 -22 -39 0
-4 -8 -28 -34 0
-4 -8 -28 -39 0
-4 -8 -34 -39 0
-4 -18 -22 -28 0
-4 -18 -22 -34 0
-4 -18 -22 -39 0
-4 -18 -28 -34 0
-4 -18 -28 -39 0
-4 -18 -34 -39 0
-4 -22 -28 -34 0
-4 -22 -28 -39 0
-4 -22 -34 -39 0
-4 -28 -34 -39 0
-8 -18 -22 -28 0
-8 -18 -22 -34 0
-8 -18 -22 -39 0
-8 -18 -28 -34 0
-8 -18 -28 -39 0
-8 -18 -34 -39 0
-8 -22 -28 -34 0
-8 -22 -28 -39 0
-8 -22 -34 -39 0
-8 -28 -34 -39 0
-18 -22 -28 -34 0
-18 -22 -28 -39 0
-18 -22 -34 -39 0
-18 -28 -34 -39 0
-22 -28 -34 -39 0
-5 -9 -13 -23 0
-5 -9 -13 -29 0
-5 -9 -13 -35 0
-5 -9 -13 -40 0
-5 -9 -23 -29 0
-5 -9 -23 -35 0
-5 -9 -23 -40 0
-5 -9 -29 -35 0
-5 -9 -29 -40 0
-5 -9 -35 -40 0
-5 -13 -23 -29 0
-5 -13 -23 -35 0
-5 -13 -23 -40 0
-5 -13 -29 -35 0
-5 -13 -29 -40 0
-5 -13 -35 -40 0
-5 -23 -29 -35 0
-5 -23 -29 -40 0
-5 -23 -35 -40 0
-5 -29 -35 -40 0
-9 -13 -23 -29 0
-9 -13 -23 -35 0
-9 -13 -23 -40 0
-9 -13 -29 -35 0
-9 -13 -29 -40 0
-9 -13 -35 -40 0
-9 -23 -29 -35 0
-9 -23 -29 -40 0
-9 -23 -35 -40 0
-9 -29 -35 -40 0
-13 -23 -29 -35 0
-13 -23 -29 -40 0
-13 -23 -35 -40 0
-13 -29 -35 -40 0
-23 -29 -35 -40 0
-6 -10 -14 -24 0
-6 -10 -14 -30 0
-6 -10 -14 -36 0
-6 -10 -14 -41 0
-6 -10 -24 -30 0
-6 -10 -24 -36 0
-6 -10 -24 -41 0
-6 -10 -30 -36 0
-6 -10 -30 -41 0
-6 -10 -36 -41 0
-6 -14 -24 -30 0
-6 -14 -24 -36 0
-6 -14 -24 -41 0
-6 -14 -30 -36 0
-6 -14 -30 -41 0
-6 -14 -36 -41 0
-6 -24 -30 -36 0
-6 -24 -30 -41 0
-6 -24 -36 -41 0
-6 -30 -36 -41 0
-10 -14 -24 -30 0
-10 -14 -24 -36 0
-10 -14 -24 -41 0
-10 -14 -30 -36 0
-10 -14 -30 -41 0
-10 -14 -36 -41 0
-10 -24 -30 -36 0
-10 -24 -30 -41 0
-10 -24 -36 -41 0
-10 -30 -36 -41 0
-14 -24 -30 -36 0
-14 -24 -30 -41 0
-14 -24 -36 -41 0
-14 -30 -36 -41 0
-24 -30 -36 -41 0
-1 -8 -16 -22 0
-1 -8 -16 -28 0
-1 -8 -16 -36 0
-1 -8 -16 -41 0
-1 -8 -22 -28 0
-1 -8 -22 -36 0
-1 -8 -22 -41 0
-1 -8 -28 -36 0
-1 -8 -28 -41 0
-1 -8 -36 -41 0
-1 -16 -22 -28 0
-1 -16 -22 -36 0
-1 -16 -22 -41 0
-1 -16 -28 -36 0
-1 -16 -28 -41 0
-1 -16 -36 -41 0
-1 -22 -28 -36 0
-1 -22 -28 -41 0
-1 -22 -36 -41 0
-1 -28 -36 -41 0
-8 -16 -22 -28 0
-8 -16 -22 -36 0
-8 -16 -22 -41 0
-8 -16 -28 -36 0
-8 -16 -28 -41 0
-8 -16 -36 -41 0
-8 -22 -28 -36 0
-8 -22 -28 -41 0
-8 -22 -36 -41 0
-8 -28 -36 -41 0
-16 -22 -28 -36 0
-16 -22 -28 -41 0
-16 -22 -36 -41 0
-16 -28 -36 -41 0
-22 -28 -36 -41 0
-2 -9 -17 -23 0
-2 -9 -17 -29 0
-2 -9 -17 -31 0
-2 -9 -17 -42 0
-2 -9 -23 -29 0
-2 -9 -23 -31 0
-2 -9 -23 -42 0
-2 -9 -29 -31 0
-2 -9 -29 -42 0
-2 -9 -31 -42 0
-2 -17 -23 -29 0
-2 -17 -23 -31 0
-2 -17 -23 -42 0
-2 -17 -29 -31 0
-2 -17 -29 -42 0
-2 -17 -31 -42 0
-2 -23 -29 -31 0
-2 -23 -29 -42 0
-2 -23 -31 -42 0
-2 -29 -31 -42 0
-9 -17 -23 -29 0
-9 -17 -23 -31 0
-9 -17 -23 -42 0
-9 -17 -29 -31 0
-9 -17 -29 -42 0
-9 -17 -31 -42 0
-9 -23 -29 -31 0
-9 -23 -29 -42 0
-9 -23 -31 -42 0
-9 -29 -31 -42 0
-17 -23 -29 -31 0
-17 -23 -29 -42 0
-17 -23 -31 -42 0
-17 -29 -31 -42 0
-23 -29 -31 -42 0
-3 -10 -18 -24 0
-3 -10 -18 -30 0
-3 -10 -18 -32 0
-3 -10 -18 -37 0
-3 -10 -24 -30 0
-3 -10 -24 -32 0
-3 -10 -24 -37 0
-3 -10 -30 -32 0
-3 -10 -30 -37 0
-3 -10 -32 -37 0
-3 -18 -24 -30 0
-3 -18 -24 -32 0
-3 -18 -24 -37 0
-3 -18 -30 -32 0
-3 -18 -30 -37 0
-3 -18 -32 -37 0
-3 -24 -30 -32 0
-3 -24 -30 -37 0
-3 -24 -32 -37 0
-3 -30 -32 -37 0
-10 -18 -24 -30 0
-10 -18 -24 -32 0
-10 -18 -24 -37 0
-10 -18 -30 -32 0
-10 -18 -30 -37 0
-10 -18 -32 -37 0
-10 -24 -30 -32 0
-10 -24 -30 -37 0
-10 -24 -32 -37 0
-10 -30 -32 -37 0
-18 -24 -30 -32 0
-18 -24 -30 -37 0
-18 -24 -32 -37 0
-18 -30 -32 -37 0
-24 -30 -32 -37 0
-4 -11 -13 -19 0
-4 -11 -13 -25 0
-4 -11 -13 -33 0
-4 -11 -13 -38 0
-4 -11 -19 -25 0
-4 -11 -19 -33 0
-4 -11 -19 -38 0
-4 -11 -25 -33 0
-4 -11 -25 -38 0
-4 -11 -33 -38 0
-4 -13 -19 -25 0
-4 -13 -19 -33 0
-4 -13 -19 -38 0
-4 -13 -25 -33 0
-4 -13 -25 -38 0
-4 -13 -33 -38 0
-4 -19 -25 -33 0
-4 -19 -25 -38 0
-4 -19 -33 -38 0
-4 -25 -33 -38 0
-11 -13 -19 -25 0
-11 -13 -19 -33 0
-11 -13 -19 -38 0
-11 -13 -25 -33 0
-11 -13 -25 -38 0
-11 -13 -33 -38 0
-11 -19 -25 -33 0
-11 -19 -25 -38 0
-11 -19 -33 -38 0
-11 -25 -33 -38 0
-13 -19 -25 -33 0
-13 -19 -25 -38 0
-13 -19 -33 -38 0
-13 -25 -33 -38 0
-19 -25 -33 -38 0
-5 -12 -14 -20 0
-5 -12 -14 -26 0
-5 -12 -14 -34 0
-5 -12 -14 -39 0
-5 -12 -20 -26 0
-5 -12 -20 -34 0
-5 -12 -20 -39 0
-5 -12 -26 -34 0
-5 -12 -26 -39 0
-5 -12 -34 -39 0
-5 -14 -20 -26 0
-5 -14 -20 -34 0
-5 -14 -20 -39 0
-5 -14 -26 -34 0
-5 -14 -26 -39 0
-5 -14 -34 -39 0
-5 -20 -26 -34 0
-5 -20 -26 -39 0
-5 -20 -34 -39 0
-5 -26 -34 -39 0
-12 -14 -20 -26 0
-12 -14 -20 -34 0
-12 -14 -20 -39 0
-12 -14 -26 -34 0
-12 -14 -26 -39 0
-12 -14 -34 -39 0
-12 -20 -26 -34 0
-12 -20 -26 -39 0
-12 -20 -34 -39 0
-12 -26 -34 -39 0
-14 -20 -26 -34 0
-14 -20 -26 -39 0
-14 -20 -34 -39 0
-14 -26 -34 -39 0
-20 -26 -34 -39 0
-6 -7 -15 -21 0
-6 -7 -15 -27 0
-6 -7 -15 -35 0
-6 -7 -15 -40 0
-6 -7 -21 -27 0
-6 -7 -21 -35 0
-6 -7 -21 -40 0
-6 -7 -27 -35 0
-6 -7 -27 -40 0
-6 -7 -35 -40 0
-6 -15 -21 -27 0
-6 -15 -21 -35 0
-6 -15 -21 -40 0
-6 -15 -27 -35 0
-6 -15 -27 -40 0
-6 -15 -35 -40 0
-6 -21 -27 -35 0
-6 -21 -27 -40 0
-6 -21 -35 -40 0
-6 -27 -35 -40 0
-7 -15 -21 -27 0
-7 -15 -21 -35 0
-7 -15 -21 -40 0
-7 -15 -27 -35 0
-7 -15 -27 -40 0
-7 -15 -35 -40 0
-7 -21 -27 -35 0
-7 -21 -27 -40 0
-7 -21 -35 -40 0
-7 -27 -35 -40 0
-15 -21 -27 -35 0
-15 -21 -27 -40 0
-15 -21 -35 -40 0
-15 -27 -35 -40 0
-21 -27 -35 -40 0
-3 -10 -16 -22 0
-3 -10 -16 -25 0
-3 -10 -16 -31 0
-3 -10 -16 -37 0
-3 -10 -22 -25 0
-3 -10 -22 -31 0
-3 -10 -22 -37 0
-3 -10 -25 -31 0
-3 -10 -25 -37 0
-3 -10 -31 -37 0
-3 -16 -22 -25 0
-3 -16 -22 -31 0
-3 -16 -22 -37 0
-3 -16 -25 -31 0
-3 -16 -25 -37 0
-3 -16 -31 -37 0
-3 -22 -25 -31 0
-3 -22 -25 -37 0
-3 -22 -31 -37 0
-3 -25 -31 -37 0
-10 -16 -22 -25 0
-10 -16 -22 -31 0
-10 -16 -22 -37 0
-10 -16 -25 -31 0
-10 -16 -25 -37 0
-10 -16 -31 -37 0
-10 -22 -25 -31 0
-10 -22 -25 -37 0
-10 -22 -31 -37 0
-10 -25 -31 -37 0
-16 -22 -25 -31 0
-16 -22 -25 -37 0
-16 -22 -31 -37 0
-16 -25 -31 -37 0
-22 -25 -31 -37 0
-2 -11 -16 -20 0
-2 -11 -16 -29 0
-2 -11 -16 -33 0
-2 -11 -16 -41 0
-2 -11 -20 -29 0
-2 -11 -20 -33 0
-2 -11 -20 -41 0
-2 -11 -29 -33 0
-2 -11 -29 -41 0
-2 -11 -33 -41 0
-2 -16 -20 -29 0
-2 -16 -20 -33 0
-2 -16 -20 -41 0
-2 -16 -29 -33 0
-2 -16 -29 -41 0
-2 -16 -33 -41 0
-2 -20 -29 -33 0
-2 -20 -29 -41 0
-2 -20 -33 -41 0
-2 -29 -33 -41 0
-11 -16 -20 -29 0
-11 -16 -20 -33 0
-11 -16 -20 -41 0
-11 -16 -29 -33 0
-11 -16 -29 -41 0
-11 -16 -33 -41 0
-11 -20 -29 -33 0
-11 -20 -29 -41 0
-11 -20 -33 -41 0
-11 -29 -33 -41 0
-16 -20 -29 -33 0
-16 -20 -29 -41 0
-16 -20 -33 -41 0
-16 -29 -33 -41 0
-20 -29 -33 -41 0
-2 -11 -16 -23 0
-2 -11 -16 -26 0
-2 -11 -16 -36 0
-2 -11 -16 -39 0
-2 -11 -23 -26 0
-2 -11 -23 -36 0
-2 -11 -23 -39 0
-2 -11 -26 -36 0
-2 -11 -26 -39 0
-2 -11 -36 -39 0
-2 -16 -23 -26 0
-2 -16 -23 -36 0
-2 -16 -23 -39 0
-2 -16 -26 -36 0
-2 -16 -26 -39 0
-2 -16 -36 -39 0
-2 -23 -26 -36 0
-2 -23 -26 -39 0
-2 -23 -36 -39 0
-2 -26 -36 -39 0
-11 -16 -23 -26 0
-11 -16 -23 -36 0
-11 -16 -23 -39 0
-11 -16 -26 -36 0
-11 -16 -26 -39 0
-11 -16 -36 -39 0
-11 -23 -26 -36 0
-11 -23 -26 -39 0
-11 -23 -36 -39 0
-11 -26 -36 -39 0
-16 -23 -26 -36 0
-16 -23 -26 -39 0
-16 -23 -36 -39 0
-16 -26 -36 -39 0
-23 -26 -36 -39 0
-3 -7 -13 -19 0
-3 -7 -13 -30 0
-3 -7 -13 -36 0
-3 -7 -13 -38 0
-3 -7 -19 -30 0
-3 -7 -19 -36 0
-3 -7 -19 -38 0
-3 -7 -30 -36 0
-3 -7 -30 -38 0
-3 -7 -36 -38 0
-3 -13 -19 -30 0
-3 -13 -19 -36 0
-3 -13 -19 -38 0
-3 -13 -30 -36 0
-3 -13 -30 -38 0
-3 -13 -36 -38 0
-3 -19 -30 -36 0
-3 -19 -30 -38 0
-3 -19 -36 -38 0
-3 -30 -36 -38 0
-7 -13 -19 -30 0
-7 -13 -19 -36 0
-7 -13 -19 -38 0
-7 -13 -30 -36 0
-7 -13 -30 -38 0
-7 -13 -36 -38 0
-7 -19 -30 -36 0
-7 -19 -30 -38 0
-7 -19 -36 -38 0
-7 -30 -36 -38 0
-13 -19 -30 -36 0
-13 -19 -30 -38 0
-13 -19 -36 -38 0
-13 -30 -36 -38 0
-19 -30 -36 -38 0
-6 -12 -18 -24 0
-6 -12 -18 -27 0
-6 -12 -18 -34 0
-6 -12 -18 -39 0
-6 -12 -24 -27 0
-6 -12 -24 -34 0
-6 -12 -24 -39 0
-6 -12 -27 -34 0
-6 -12 -27 -39 0
-6 -12 -34 -39 0
-6 -18 -24 -27 0
-6 -18 -24 -34 0
-6 -18 -24 -39 0
-6 -18 -27 -34 0
-6 -18 -27 -39 0
-6 -18 -34 -39 0
-6 -24 -27 -34 0
-6 -24 -27 -39 0
-6 -24 -34 -39 0
-6 -27 -34 -39 0
-12 -18 -24 -27 0
-12 -18 -24 -34 0
-12 -18 -24 -39 0
-12 -18 -27 -34 0
-12 -18 -27 -39 0
-12 -18 -34 -39 0
-12 -24 -27 -34 0
-12 -24 -27 -39 0
-12 -24 -34 -39 0
-12 -27 -34 -39 0
-18 -24 -27 -34 0
-18 -24 -27 -39 0
-18 -24 -34 -39 0
-18 -27 -34 -39 0
-24 -27 -34 -39 0
-1 -7 -14 -19 0
-1 -7 -14 -28 0
-1 -7 -14 -34 0
-1 -7 -14 -42 0
-1 -7 -19 -28 0
-1 -7 -19 -34 0
-1 -7 -19 -42 0
-1 -7 -28 -34 0
-1 -7 -28 -42 0
-1 -7 -34 -42 0
-1 -14 -19 -28 0
-1 -14 -19 -34 0
-1 -14 -19 -42 0
-1 -14 -28 -34 0
-1 -14 -28 -42 0
-1 -14 -34 -42 0
-1 -19 -28 -34 0
-1 -19 -28 -42 0
-1 -19 -34 -42 0
-1 -28 -34 -42 0
-7 -14 -19 -28 0
-7 -14 -19 -34 0
-7 -14 -19 -42 0
-7 -14 -28 -34 0
-7 -14 -28 -42 0
-7 -14 -34 -42 0
-7 -19 -28 -34 0
-7 -19 -28 -42 0
-7 -19 -34 -42 0
-7 -28 -34 -42 0
-14 -19 -28 -34 0
-14 -19 -28 -42 0
-14 -19 -34 -42 0
-14 -28 -34 -42 0
-19 -28 -34 -42 0
-2 -9 -15 -23 0
-2 -9 -15 -25 0
-2 -9 -15 -35 0
-2 -9 -15 -42 0
-2 -9 -23 -25 0
-2 -9 -23 -35 0
-2 -9 -23 -42 0
-2 -9 -25 -35 0
-2 -9 -25 -42 0
-2 -9 -35 -42 0
-2 -15 -23 -25 0
-2 -15 -23 -35 0
-2 -15 -23 -42 0
-2 -15 -25 -35 0
-2 -15 -25 -42 0
-2 -15 -35 -42 0
-2 -23 -25 -35 0
-2 -23 -25 -42 0
-2 -23 -35 -42 0
-2 -25 -35 -42 0
-9 -15 -23 -25 0
-9 -15 -23 -35 0
-9 -15 -23 -42 0
-9 -15 -25 -35 0
-9 -15 -25 -42 0
-9 -15 -35 -42 0
-9 -23 -25 -35 0
-9 -23 -25 -42 0
-9 -23 -35 -42 0
-9 -25 -35 -42 0
-15 -23 -25 -35 0
-15 -23 -25 -42 0
-15 -23 -35 -42 0
-15 -25 -35 -42 0
-23 -25 -35 -42 0
-4 -8 -17 -23 0
-4 -8 -17 -26 0
-4 -8 -17 -32 0
-4 -8 -17 -38 0
-4 -8 -23 -26 0
-4 -8 -23 -32 0
-4 -8 -23 -38 0
-4 -8 -26 -32 0
-4 -8 -26 -38 0
-4 -8 -32 -38 0
-4 -17 -23 -26 0
-4 -17 -23 -32 0
-4 -17 -23 -38 0
-4 -17 -26 -32 0
-4 -17 -26 -38 0
-4 -17 -32 -38 0
-4 -23 -26 -32 0
-4 -23 -26 -38 0
-4 -23 -32 -38 0
-4 -26 -32 -38 0
-8 -17 -23 -26 0
-8 -17 -23 -32 0
-8 -17 -23 -38 0
-8 -17 -26 -32 0
-8 -17 -26 -38 0
-8 -17 -32 -38 0
-8 -23 -26 -32 0
-8 -23 -26 -38 0
-8 -23 -32 -38 0
-8 -26 -32 -38 0
-17 -23 -26 -32 0
-17 -23 -26 -38 0
-17 -23 -32 -38 0
-17 -26 -32 -38 0
-23 -26 -32 -38 0
-6 -12 -15 -21 0
-6 -12 -15 -30 0
-6 -12 -15 -32 0
-6 -12 -15 -42 0
-6 -12 -21 -30 0
-6 -12 -21 -32 0
-6 -12 -21 -42 0
-6 -12 -30 -32 0
-6 -12 -30 -42 0
-6 -12 -32 -42 0
-6 -15 -21 -30 0
-6 -15 -21 -32 0
-6 -15 -21 -42 0
-6 -15 -30 -32 0
-6 -15 -30 -42 0
-6 -15 -32 -42 0
-6 -21 -30 -32 0
-6 -21 -30 -42 0
-6 -21 -32 -42 0
-6 -30 -32 -42 0
-12 -15 -21 -30 0
-12 -15 -21 -32 0
-12 -15 -21 -42 0
-12 -15 -30 -32 0
-12 -15 -30 -42 0
-12 -15 -32 -42 0
-12 -21 -30 -32 0
-12 -21 -30 -42 0
-12 -21 -32 -42 0
-12 -30 -32 -42 0
-15 -21 -30 -32 0
-15 -21 -30 -42 0
-15 -21 -32 -42 0
-15 -30 -32 -42 0
-21 -30 -32 -42 0
-4 -7 -13 -24 0
-4 -7 -13 -28 0
-4 -7 -13 -31 0
-4 -7 -13 -39 0
-4 -7 -24 -28 0
-4 -7 -24 -31 0
-4 -7 -24 -39 0
-4 -7 -28 -31 0
-4 -7 -28 -39 0
-4 -7 -31 -39 0
-4 -13 -24 -28 0
-4 -13 -24 -31 0
-4 -13 -24 -39 0
-4 -13 -28 -31 0
-4 -13 -28 -39 0
-4 -13 -31 -39 0
-4 -24 -28 -31 0
-4 -24 -28 -39 0
-4 -24 -31 -39 0
-4 -28 -31 -39 0
-7 -13 -24 -28 0
-7 -13 -24 -31 0
-7 -13 -24 -39 0
-7 -13 -28 -31 0
-7 -13 -28 -39 0
-7 -13 -31 -39 0
-7 -24 -28 -31 0
-7 -24 -28 -39 0
-7 -24 -31 -39 0
-7 -28 -31 -39 0
-13 -24 -28 -31 0
-13 -24 -28 -39 0
-13 -24 -31 -39 0
-13 -28 -31 -39 0
-24 -28 -31 -39 0
-6 -10 -13 -20 0
-6 -10 -13 -27 0
-6 -10 -13 -33 0
-6 -10 -13 -37 0
-6 -10 -20 -27 0
-6 -10 -20 -33 0
-6 -10 -20 -37 0
-6 -10 -27 -33 0
-6 -10 -27 -37 0
-6 -10 -33 -37 0
-6 -13 -20 -27 0
-6 -13 -20 -33 0
-6 -13 -20 -37 0
-6 -13 -27 -33 0
-6 -13 -27 -37 0
-6 -13 -33 -37 0
-6 -20 -27 -33 0
-6 -20 -27 -37 0
-6 -20 -33 -37 0
-6 -27 -33 -37 0
-10 -13 -20 -27 0
-10 -13 -20 -33 0
-10 -13 -20 -37 0
-10 -13 -27 -33 0
-10 -13 -27 -37 0
-10 -13 -33 -37 0
-10 -20 -27 -33 0
-10 -20 -27 -37 0
-10 -20 -33 -37 0
-10 -27 -33 -37 0
-13 -20 -27 -33 0
-13 -20 -27 -37 0
-13 -20 -33 -37 0
-13 -27 -33 -37 0
-20 -27 -33 -37 0
-1 -12 -15 -24 0
-1 -12 -15 -28 0
-1 -12 -15 -35 0
-1 -12 -15 -40 0
-1 -12 -24 -28 0
-1 -12 -24 -35 0
-1 -12 -24 -40 0
-1 -12 -28 -35 0
-1 -12 -28 -40 0
-1 -12 -35 -40 0
-1 -15 -24 -28 0
-1 -15 -24 -35 0
-1 -15 -24 -40 0
-1 -15 -28 -35 0
-1 -15 -28 -40 0
-1 -15 -35 -40 0
-1 -24 -28 -35 0
-1 -24 -28 -40 0
-1 -24 -35 -40 0
-1 -28 -35 -40 0
-12 -15 -24 -28 0
-12 -15 -24 -35 0
-12 -15 -24 -40 0
-12 -15 -28 -35 0
-12 -15 -28 -40 0
-12 -15 -35 -40 0
-12 -24 -28 -35 0
-12 -24 -28 -40 0
-12 -24 -35 -40 0
-12 -28 -35 -40 0
-15 -24 -28 -35 0
-15 -24 -28 -40 0
-15 -24 -35 -40 0
-15 -28 -35 -40 0
-24 -28 -35 -40 0
-6 -8 -14 -21 0
-6 -8 -14 -25 0
-6 -8 -14 -34 0
-6 -8 -14 -37 0
-6 -8 -21 -25 0
-6 -8 -21 -34 0
-6 -8 -21 -37 0
-6 -8 -25 -34 0
-6 -8 -25 -37 0
-6 -8 -34 -37 0
-6 -14 -21 -25 0
-6 -14 -21 -34 0
-6 -14 -21 -37 0
-6 -14 -25 -34 0
-6 -14 -25 -37 0
-6 -14 -34 -37 0
-6 -21 -25 -34 0
-6 -21 -25 -37 0
-6 -21 -34 -37 0
-6 -25 -34 -37 0
-8 -14 -21 -25 0
-8 -14 -21 -34 0
-8 -14 -21 -37 0
-8 -14 -25 -34 0
-8 -14 -25 -37 0
-8 -14 -34 -37 0
-8 -21 -25 -34 0
-8 -21 -25 -37 0
-8 -21 -34 -37 0
-8 -25 -34 -37 0
-14 -21 -25 -34 0
-14 -21 -25 -37 0
-14 -21 -34 -37 0
-14 -25 -34 -37 0
-21 -25 -34 -37 0
-4 -8 -17 -21 0
-4 -8 -17 -30 0
-4 -8 -17 -31 0
-4 -8 -17 -42 0
-4 -8 -21 -30 0
-4 -8 -21 -31 0
-4 -8 -21 -42 0
-4 -8 -30 -31 0
-4 -8 -30 -42 0
-4 -8 -31 -42 0
-4 -17 -21 -30 0
-4 -17 -21 -31 0
-4 -17 -21 -42 0
-4 -17 -30 -31 0
-4 -17 -30 -42 0
-4 -17 -31 -42 0
-4 -21 -30 -31 0
-4 -21 -30 -42 0
-4 -21 -31 -42 0
-4 -30 -31 -42 0
-8 -17 -21 -30 0
-8 -17 -21 -31 0
-8 -17 -21 -42 0
-8 -17 -30 -31 0
-8 -17 -30 -42 0
-8 -17 -31 -42 0
-8 -21 -30 -31 0
-8 -21 -30 -42 0
-8 -21 -31 -42 0
-8 -30 -31 -42 0
-17 -21 -30 -31 0
-17 -21 -30 -42 0
-17 -21 -31 -42 0
-17 -30 -31 -42 0
-21 -30 -31 -42 0
-4 -8 -18 -19 0
-4 -8 -18 -25 0
-4 -8 -18 -32 0
-4 -8 -18 -42 0
-4 -8 -19 -25 0
-4 -8 -19 -32 0
-4 -8 -19 -42 0
-4 -8 -25 -32 0
-4 -8 -25 -42 0
-4 -8 -32 -42 0
-4 -18 -19 -25 0
-4 -18 -19 -32 0
-4 -18 -19 -42 0
-4 -18 -25 -32 0
-4 -18 -25 -42 0
-4 -18 -32 -42 0
-4 -19 -25 -32 0
-4 -19 -25 -42 0
-4 -19 -32 -42 0
-4 -25 -32 -42 0
-8 -18 -19 -25 0
-8 -18 -19 -32 0
-8 -18 -19 -42 0
-8 -18 -25 -32 0
-8 -18 -25 -42 0
-8 -18 -32 -42 0
-8 -19 -25 -32 0
-8 -19 -25 -42 0
-8 -19 -32 -42 0
-8 -25 -32 -42 0
-18 -19 -25 -32 0
-18 -19 -25 -42 0
-18 -19 -32 -42 0
-18 -25 -32 -42 0
-19 -25 -32 -42 0
-5 -9 -18 -20 0
-5 -9 -18 -29 0
-5 -9 -18 -32 0
-5 -9 -18 -39 0
-5 -9 -20 -29 0
-5 -9 -20 -32 0
-5 -9 -20 -39 0
-5 -9 -29 -32 0
-5 -9 -29 -39 0
-5 -9 -32 -39 0
-5 -18 -20 -29 0
-5 -18 -20 -32 0
-5 -18 -20 -39 0
-5 -18 -29 -32 0
-5 -18 -29 -39 0
-5 -18 -32 -39 0
-5 -20 -29 -32 0
-5 -20 -29 -39 0
-5 -20 -32 -39 0
-5 -29 -32 -39 0
-9 -18 -20 -29 0
-9 -18 -20 -32 0
-9 -18 -20 -39 0
-9 -18 -29 -32 0
-9 -18 -29 -39 0
-9 -18 -32 -39 0
-9 -20 -29 -32 0
-9 -20 -29 -39 0
-9 -20 -32 -39 0
-9 -29 -32 -39 0
-18 -20 -29 -32 0
-18 -20 -29 -39 0
-18 -20 -32 -39 0
-18 -29 -32 -39 0
-20 -29 -32 -39 0
-1 -10 -13 -22 0
-1 -10 -13 -26 0
-1 -10 -13 -33 0
-1 -10 -13 -42 0
-1 -10 -22 -26 0
-1 -10 -22 -33 0
-1 -10 -22 -42 0
-1 -10 -26 -33 0
-1 -10 -26 -42 0
-1 -10 -33 -42 0
-1 -13 -22 -26 0
-1 -13 -22 -33 0
-1 -13 -22 -42 0
-1 -13 -26 -33 0
-1 -13 -26 -42 0
-1 -13 -33 -42 0
-1 -22 -26 -33 0
-1 -22 -26 -42 0
-1 -22 -33 -42 0
-1 -26 -33 -42 0
-10 -13 -22 -26 0
-10 -13 -22 -33 0
-10 -13 -22 -42 0
-10 -13 -26 -33 0
-10 -13 -26 -42 0
-10 -13 -33 -42 0
-10 -22 -26 -33 0
-10 -22 -26 -42 0
-10 -22 -33 -42 0
-10 -26 -33 -42 0
-13 -22 -26 -33 0
-13 -22 -26 -42 0
-13 -22 -33 -42 0
-13 -26 -33 -42 0
-22 -26 -33 -42 0
