p cnf 48 11748
1 2 3 4 5 6 0
-1 -2 0
-1 -3 0
-1 -4 0
-1 -5 0
-1 -6 0
-2 -3 0
-2 -4 0
-2 -5 0
-2 -6 0
-3 -4 0
-3 -5 0
-3 -6 0
-4 -5 0
-4 -6 0
-5 -6 0
7 8 9 10 11 12 0
-7 -8 0
-7 -9 0
-7 -10 0
-7 -11 0
-7 -12 0
-8 -9 0
-8 -10 0
-8 -11 0
-8 -12 0
-9 -10 0
-9 -11 0
-9 -12 0
-10 -11 0
-10 -12 0
-11 -12 0
13 14 15 16 17 18 0
-13 -14 0
-13 -15 0
-13 -16 0
-13 -17 0
-13 -18 0
-14 -15 0
-14 -16 0
-14 -17 0
-14 -18 0
-15 -16 0
-15 -17 0
-15 -18 0
-16 -17 0
-16 -18 0
-17 -18 0
19 20 21 22 23 24 0
-19 -20 0
-19 -21 0
-19 -22 0
-19 -23 0
-19 -24 0
-20 -21 0
-20 -22 0
-20 -23 0
-20 -24 0
-21 -22 0
-21 -23 0
-21 -24 0
-22 -23 0
-22 -24 0
-23 -24 0
25 26 27 28 29 30 0
-25 -26 0
-25 -27 0
-25 -28 0
-25 -29 0
-25 -30 0
-26 -27 0
-26 -28 0
-26 -29 0
-26 -30 0
-27 -28 0
-27 -29 0
-27 -30 0
-28 -29 0
-28 -30 0
-29 -30 0
31 32 33 34 35 36 0
-31 -32 0
-31 -33 0
-31 -34 0
-31 -35 0
-31 -36 0
-32 -33 0
-32 -34 0
-32 -35 0
-32 -36 0
-33 -34 0
-33 -35 0
-33 -36 0
-34 -35 0
-34 -36 0
-35 -36 0
37 38 39 40 41 42 0
-37 -38 0
-37 -39 0
-37 -40 0
-37 -41 0
-37 -42 0
-38 -39 0
-38 -40 0
-38 -41 0
-38 -42 0
-39 -40 0
-39 -41 0
-39 -42 0
-40 -41 0
-40 -42 0
-41 -42 0
43 44 45 46 47 48 0
-43 -44 0
-43 -45 0
-43 -46 0
-43 -47 0
-43 -48 0
-44 -45 0
-44 -46 0
-44 -47 0
-44 -48 0
-45 -46 0
-45 -47 0
-45 -48 0
-46 -47 0
-46 -48 0
-47 -48 0
-1 -8 -17 -22 0
-1 -8 -17 -25 0
-1 -8 -17 -35 0
-1 -8 -17 -39 0
-1 -8 -17 -44 0
-1 -8 -22 -25 0
-1 -8 -22 -35 0
-1 -8 -22 -39 0
-1 -8 -22 -44 0
-1 -8 -25 -35 0
-1 -8 -25 -39 0
-1 -8 -25 -44 0
-1 -8 -35 -39 0
-1 -8 -35 -44 0
-1 -8 -39 -44 0
-1 -17 -22 -25 0
-1 -17 -22 -35 0
-1 -17 -22 -39 0
-1 -17 -22 -44 0
-1 -17 -25 -35 0
-1 -17 -25 -39 0
-1 -17 -25 -44 0
-1 -17 -35 -39 0
-1 -17 -35 -44 0
-1 -17 -39 -44 0
-1 -22 -25 -35 0
-1 -22 -25 -39 0
-1 -22 -25 -44 0
-1 -22 -35 -39 0
-1 -22 -35 -44 0
-1 -22 -39 -44 0
-1 -25 -35 -39 0
-1 -25 -35 -44 0
-1 -25 -39 -44 0
-1 -35 -39 -44 0
-8 -17 -22 -25 0
-8 -17 -22 -35 0
-8 -17 -22 -39 0
-8 -17 -22 -44 0
-8 -17 -25 -35 0
-8 -17 -25 -39 0
-8 -17 -25 -44 0
-8 -17 -35 -39 0
-8 -17 -35 -44 0
-8 -17 -39 -44 0
-8 -22 -25 -35 0
-8 -22 -25 -39 0
-8 -22 -25 -44 0
-8 -22 -35 -39 0
-8 -22 -35 -44 0
-8 -22 -39 -44 0
-8 -25 -35 -39 0
-8 -25 -35 -44 0
-8 -25 -39 -44 0
-8 -35 -39 -44 0
-17 -22 -25 -35 0
-17 -22 -25 -39 0
-17 -22 -25 -44 0
-17 -22 -35 -39 0
-17 -22 -35 -44 0
-17 -22 -39 -44 0
-17 -25 -35 -39 0
-17 -25 -35 -44 0
-17 -25 -39 -44 0
-17 -35 -39 -44 0
-22 -25 -35 -39 0
-22 -25 -35 -44 0
-22 -25 -39 -44 0
-22 -35 -39 -44 0
-25 -35 -39 -44 0
-2 -9 -18 -23 0
-2 -9 -18 -26 0
-2 -9 -18 -36 0
-2 -9 -18 -40 0
-2 -9 -18 -45 0
-2 -9 -23 -26 0
-2 -9 -23 -36 0
-2 -9 -23 -40 0
-2 -9 -23 -45 0
-2 -9 -26 -36 0
-2 -9 -26 -40 0
-2 -9 -26 -45 0
-2 -9 -36 -40 0
-2 -9 -36 -45 0
-2 -9 -40 -45 0
-2 -18 -23 -26 0
-2 -18 -23 -36 0
-2 -18 -23 -40 0
-2 -18 -23 -45 0
-2 -18 -26 -36 0
-2 -18 -26 -40 0
-2 -18 -26 -45 0
-2 -18 -36 -40 0
-2 -18 -36 -45 0
-2 -18 -40 -45 0
-2 -23 -26 -36 0
-2 -23 -26 -40 0
-2 -23 -26 -45 0
-2 -23 -36 -40 0
-2 -23 -36 -45 0
-2 -23 -40 -45 0
-2 -26 -36 -40 0
-2 -26 -36 -45 0
-2 -26 -40 -45 0
-2 -36 -40 -45 0
-9 -18 -23 -26 0
-9 -18 -23 -36 0
-9 -18 -23 -40 0
-9 -18 -23 -45 0
-9 -18 -26 -36 0
-9 -18 -26 -40 0
-9 -18 -26 -45 0
-9 -18 -36 -40 0
-9 -18 -36 -45 0
-9 -18 -40 -45 0
-9 -23 -26 -36 0
-9 -23 -26 -40 0
-9 -23 -26 -45 0
-9 -23 -36 -40 0
-9 -23 -36 -45 0
-9 -23 -40 -45 0
-9 -26 -36 -40 0
-9 -26 -36 -45 0
-9 -26 -40 -45 0
-9 -36 -40 -45 0
-18 -23 -26 -36 0
-18 -23 -26 -40 0
-18 -23 -26 -45 0
-18 -23 -36 -40 0
-18 -23 -36 -45 0
-18 -23 -40 -45 0
-18 -26 -36 -40 0
-18 -26 -36 -45 0
-18 -26 -40 -45 0
-18 -36 -40 -45 0
-23 -26 -36 -40 0
-23 -26 -36 -45 0
-23 -26 -40 -45 0
-23 -36 -40 -45 0
-26 -36 -40 -45 0
-3 -10 -13 -24 0
-3 -10 -13 -27 0
-3 -10 -13 -31 0
-3 -10 -13 -41 0
-3 -10 -13 -46 0
-3 -10 -24 -27 0
-3 -10 -24 -31 0
-3 -10 -24 -41 0
-3 -10 -24 -46 0
-3 -10 -27 -31 0
-3 -10 -27 -41 0
-3 -10 -27 -46 0
-3 -10 -31 -41 0
-3 -10 -31 -46 0
-3 -10 -41 -46 0
-3 -13 -24 -27 0
-3 -13 -24 -31 0
-3 -13 -24 -41 0
-3 -13 -24 -46 0
-3 -13 -27 -31 0
-3 -13 -27 -41 0
-3 -13 -27 -46 0
-3 -13 -31 -41 0
-3 -13 -31 -46 0
-3 -13 -41 -46 0
-3 -24 -27 -31 0
-3 -24 -27 -41 0
-3 -24 -27 -46 0
-3 -24 -31 -41 0
-3 -24 -31 -46 0
-3 -24 -41 -46 0
-3 -27 -31 -41 0
-3 -27 -31 -46 0
-3 -27 -41 -46 0
-3 -31 -41 -46 0
-10 -13 -24 -27 0
-10 -13 -24 -31 0
-10 -13 -24 -41 0
-10 -13 -24 -46 0
-10 -13 -27 -31 0
-10 -13 -27 -41 0
-10 -13 -27 -46 0
-10 -13 -31 -41 0
-10 -13 -31 -46 0
-10 -13 -41 -46 0
-10 -24 -27 -31 0
-10 -24 -27 -41 0
-10 -24 -27 -46 0
-10 -24 -31 -41 0
-10 -24 -31 -46 0
-10 -24 -41 -46 0
-10 -27 -31 -41 0
-10 -27 -31 -46 0
-10 -27 -41 -46 0
-10 -31 -41 -46 0
-13 -24 -27 -31 0
-13 -24 -27 -41 0
-13 -24 -27 -46 0
-13 -24 -31 -41 0
-13 -24 -31 -46 0
-13 -24 -41 -46 0
-13 -27 -31 -41 0
-13 -27 -31 -46 0
-13 -27 -41 -46 0
-13 -31 -41 -46 0
-24 -27 -31 -41 0
-24 -27 -31 -46 0
-24 -27 -41 -46 0
-24 -31 -41 -46 0
-27 -31 -41 -46 0
-4 -7 -14 -19 0
-4 -7 -14 -28 0
-4 -7 -14 -32 0
-4 -7 -14 -42 0
-4 -7 -14 -47 0
-4 -7 -19 -28 0
-4 -7 -19 -32 0
-4 -7 -19 -42 0
-4 -7 -19 -47 0
-4 -7 -28 -32 0
-4 -7 -28 -42 0
-4 -7 -28 -47 0
-4 -7 -32 -42 0
-4 -7 -32 -47 0
-4 -7 -42 -47 0
-4 -14 -19 -28 0
-4 -14 -19 -32 0
-4 -14 -19 -42 0
-4 -14 -19 -47 0
-4 -14 -28 -32 0
-4 -14 -28 -42 0
-4 -14 -28 -47 0
-4 -14 -32 -42 0
-4 -14 -32 -47 0
-4 -14 -42 -47 0
-4 -19 -28 -32 0
-4 -19 -28 -42 0
-4 -19 -28 -47 0
-4 -19 -32 -42 0
-4 -19 -32 -47 0
-4 -19 -42 -47 0
-4 -28 -32 -42 0
-4 -28 -32 -47 0
-4 -28 -42 -47 0
-4 -32 -42 -47 0
-7 -14 -19 -28 0
-7 -14 -19 -32 0
-7 -14 -19 -42 0
-7 -14 -19 -47 0
-7 -14 -28 -32 0
-7 -14 -28 -42 0
-7 -14 -28 -47 0
-7 -14 -32 -42 0
-7 -14 -32 -47 0
-7 -14 -42 -47 0
-7 -19 -28 -32 0
-7 -19 -28 -42 0
-7 -19 -28 -47 0
-7 -19 -32 -42 0
-7 -19 -32 -47 0
-7 -19 -42 -47 0
-7 -28 -32 -42 0
-7 -28 -32 -47 0
-7 -28 -42 -47 0
-7 -32 -42 -47 0
-14 -19 -28 -32 0
-14 -19 -28 -42 0
-14 -19 -28 -47 0
-14 -19 -32 -42 0
-14 -19 -32 -47 0
-14 -19 -42 -47 0
-14 -28 -32 -42 0
-14 -28 -32 -47 0
-14 -28 -42 -47 0
-14 -32 -42 -47 0
-19 -28 -32 -42 0
-19 -28 -32 -47 0
-19 -28 -42 -47 0
-19 -32 -42 -47 0
-28 -32 -42 -47 0
-5 -12 -15 -20 0
-5 -12 -15 -29 0
-5 -12 -15 -33 0
-5 -12 -15 -37 0
-5 -12 -15 -48 0
-5 -12 -20 -29 0
-5 -12 -20 -33 0
-5 -12 -20 -37 0
-5 -12 -20 -48 0
-5 -12 -29 -33 0
-5 -12 -29 -37 0
-5 -12 -29 -48 0
-5 -12 -33 -37 0
-5 -12 -33 -48 0
-5 -12 -37 -48 0
-5 -15 -20 -29 0
-5 -15 -20 -33 0
-5 -15 -20 -37 0
-5 -15 -20 -48 0
-5 -15 -29 -33 0
-5 -15 -29 -37 0
-5 -15 -29 -48 0
-5 -15 -33 -37 0
-5 -15 -33 -48 0
-5 -15 -37 -48 0
-5 -20 -29 -33 0
-5 -20 -29 -37 0
-5 -20 -29 -48 0
-5 -20 -33 -37 0
-5 -20 -33 -48 0
-5 -20 -37 -48 0
-5 -29 -33 -37 0
-5 -29 -33 -48 0
-5 -29 -37 -48 0
-5 -33 -37 -48 0
-12 -15 -20 -29 0
-12 -15 -20 -33 0
-12 -15 -20 -37 0
-12 -15 -20 -48 0
-12 -15 -29 -33 0
-12 -15 -29 -37 0
-12 -15 -29 -48 0
-12 -15 -33 -37 0
-12 -15 -33 -48 0
-12 -15 -37 -48 0
-12 -20 -29 -33 0
-12 -20 -29 -37 0
-12 -20 -29 -48 0
-12 -20 -33 -37 0
-12 -20 -33 -48 0
-12 -20 -37 -48 0
-12 -29 -33 -37 0
-12 -29 -33 -48 0
-12 -29 -37 -48 0
-12 -33 -37 -48 0
-15 -20 -29 -33 0
-15 -20 -29 -37 0
-15 -20 -29 -48 0
-15 -20 -33 -37 0
-15 -20 -33 -48 0
-15 -20 -37 -48 0
-15 -29 -33 -37 0
-15 -29 -33 -48 0
-15 -29 -37 -48 0
-15 -33 -37 -48 0
-20 -29 -33 -37 0
-20 -29 -33 -48 0
-20 -29 -37 -48 0
-20 -33 -37 -48 0
-29 -33 -37 -48 0
-6 -7 -16 -21 0
-6 -7 -16 -30 0
-6 -7 -16 -34 0
-6 -7 -16 -38 0
-6 -7 -16 -43 0
-6 -7 -21 -30 0
-6 -7 -21 -34 0
-6 -7 -21 -38 0
-6 -7 -21 -43 0
-6 -7 -30 -34 0
-6 -7 -30 -38 0
-6 -7 -30 -43 0
-6 -7 -34 -38 0
-6 -7 -34 -43 0
-6 -7 -38 -43 0
-6 -16 -21 -30 0
-6 -16 -21 -34 0
-6 -16 -21 -38 0
-6 -16 -21 -43 0
-6 -16 -30 -34 0
-6 -16 -30 -38 0
-6 -16 -30 -43 0
-6 -16 -34 -38 0
-6 -16 -34 -43 0
-6 -16 -38 -43 0
-6 -21 -30 -34 0
-6 -21 -30 -38 0
-6 -21 -30 -43 0
-6 -21 -34 -38 0
-6 -21 -34 -43 0
-6 -21 -38 -43 0
-6 -30 -34 -38 0
-6 -30 -34 -43 0
-6 -30 -38 -43 0
-6 -34 -38 -43 0
-7 -16 -21 -30 0
-7 -16 -21 -34 0
-7 -16 -21 -38 0
-7 -16 -21 -43 0
-7 -16 -30 -34 0
-7 -16 -30 -38 0
-7 -16 -30 -43 0
-7 -16 -34 -38 0
-7 -16 -34 -43 0
-7 -16 -38 -43 0
-7 -21 -30 -34 0
-7 -21 -30 -38 0
-7 -21 -30 -43 0
-7 -21 -34 -38 0
-7 -21 -34 -43 0
-7 -21 -38 -43 0
-7 -30 -34 -38 0
-7 -30 -34 -43 0
-7 -30 -38 -43 0
-7 -34 -38 -43 0
-16 -21 -30 -34 0
-16 -21 -30 -38 0
-16 -21 -30 -43 0
-16 -21 -34 -38 0
-16 -21 -34 -43 0
-16 -21 -38 -43 0
-16 -30 -34 -38 0
-16 -30 -34 -43 0
-16 -30 -38 -43 0
-16 -34 -38 -43 0
-21 -30 -34 -38 0
-21 -30 -34 -43 0
-21 -30 -38 -43 0
-21 -34 -38 -43 0
-30 -34 -38 -43 0
-1 -10 -17 -19 0
-1 -10 -17 -30 0
-1 -10 -17 -33 0
-1 -10 -17 -39 0
-1 -10 -17 -48 0
-1 -10 -19 -30 0
-1 -10 -19 -33 0
-1 -10 -19 -39 0
-1 -10 -19 -48 0
-1 -10 -30 -33 0
-1 -10 -30 -39 0
-1 -10 -30 -48 0
-1 -10 -33 -39 0
-1 -10 -33 -48 0
-1 -10 -39 -48 0
-1 -17 -19 -30 0
-1 -17 -19 -33 0
-1 -17 -19 -39 0
-1 -17 -19 -48 0
-1 -17 -30 -33 0
-1 -17 -30 -39 0
-1 -17 -30 -48 0
-1 -17 -33 -39 0
-1 -17 -33 -48 0
-1 -17 -39 -48 0
-1 -19 -30 -33 0
-1 -19 -30 -39 0
-1 -19 -30 -48 0
-1 -19 -33 -39 0
-1 -19 -33 -48 0
-1 -19 -39 -48 0
-1 -30 -33 -39 0
-1 -30 -33 -48 0
-1 -30 -39 -48 0
-1 -33 -39 -48 0
-10 -17 -19 -30 0
-10 -17 -19 -33 0
-10 -17 -19 -39 0
-10 -17 -19 -48 0
-10 -17 -30 -33 0
-10 -17 -30 -39 0
-10 -17 -30 -48 0
-10 -17 -33 -39 0
-10 -17 -33 -48 0
-10 -17 -39 -48 0
-10 -19 -30 -33 0
-10 -19 -30 -39 0
-10 -19 -30 -48 0
-10 -19 -33 -39 0
-10 -19 -33 -48 0
-10 -19 -39 -48 0
-10 -30 -33 -39 0
-10 -30 -33 -48 0
-10 -30 -39 -48 0
-10 -33 -39 -48 0
-17 -19 -30 -33 0
-17 -19 -30 -39 0
-17 -19 -30 -48 0
-17 -19 -33 -39 0
-17 -19 -33 -48 0
-17 -19 -39 -48 0
-17 -30 -33 -39 0
-17 -30 -33 -48 0
-17 -30 -39 -48 0
-17 -33 -39 -48 0
-19 -30 -33 -39 0
-19 -30 -33 -48 0
-19 -30 -39 -48 0
-19 -33 -39 -48 0
-30 -33 -39 -48 0
-2 -11 -18 -20 0
-2 -11 -18 -25 0
-2 -11 -18 -34 0
-2 -11 -18 -40 0
-2 -11 -18 -43 0
-2 -11 -20 -25 0
-2 -11 -20 -34 0
-2 -11 -20 -40 0
-2 -11 -20 -43 0
-2 -11 -25 -34 0
-2 -11 -25 -40 0
-2 -11 -25 -43 0
-2 -11 -34 -40 0
-2 -11 -34 -43 0
-2 -11 -40 -43 0
-2 -18 -20 -25 0
-2 -18 -20 -34 0
-2 -18 -20 -40 0
-2 -18 -20 -43 0
-2 -18 -25 -34 0
-2 -18 -25 -40 0
-2 -18 -25 -43 0
-2 -18 -34 -40 0
-2 -18 -34 -43 0
-2 -18 -40 -43 0
-2 -20 -25 -34 0
-2 -20 -25 -40 0
-2 -20 -25 -43 0
-2 -20 -34 -40 0
-2 -20 -34 -43 0
-2 -20 -40 -43 0
-2 -25 -34 -40 0
-2 -25 -34 -43 0
-2 -25 -40 -43 0
-2 -34 -40 -43 0
-11 -18 -20 -25 0
-11 -18 -20 -34 0
-11 -18 -20 -40 0
-11 -18 -20 -43 0
-11 -18 -25 -34 0
-11 -18 -25 -40 0
-11 -18 -25 -43 0
-11 -18 -34 -40 0
-11 -18 -34 -43 0
-11 -18 -40 -43 0
-11 -20 -25 -34 0
-11 -20 -25 -40 0
-11 -20 -25 -43 0
-11 -20 -34 -40 0
-11 -20 -34 -43 0
-11 -20 -40 -43 0
-11 -25 -34 -40 0
-11 -25 -34 -43 0
-11 -25 -40 -43 0
-11 -34 -40 -43 0
-18 -20 -25 -34 0
-18 -20 -25 -40 0
-18 -20 -25 -43 0
-18 -20 -34 -40 0
-18 -20 -34 -43 0
-18 -20 -40 -43 0
-18 -25 -34 -40 0
-18 -25 -34 -43 0
-18 -25 -40 -43 0
-18 -34 -40 -43 0
-20 -25 -34 -40 0
-20 -25 -34 -43 0
-20 -25 -40 -43 0
-20 -34 -40 -43 0
-25 -34 -40 -43 0
-3 -12 -13 -21 0
-3 -12 -13 -26 0
-3 -12 -13 -35 0
-3 -12 -13 -41 0
-3 -12 -13 -44 0
-3 -12 -21 -26 0
-3 -12 -21 -35 0
-3 -12 -21 -41 0
-3 -12 -21 -44 0
-3 -12 -26 -35 0
-3 -12 -26 -41 0
-3 -12 -26 -44 0
-3 -12 -35 -41 0
-3 -12 -35 -44 0
-3 -12 -41 -44 0
-3 -13 -21 -26 0
-3 -13 -21 -35 0
-3 -13 -21 -41 0
-3 -13 -21 -44 0
-3 -13 -26 -35 0
-3 -13 -26 -41 0
-3 -13 -26 -44 0
-3 -13 -35 -41 0
-3 -13 -35 -44 0
-3 -13 -41 -44 0
-3 -21 -26 -35 0
-3 -21 -26 -41 0
-3 -21 -26 -44 0
-3 -21 -35 -41 0
-3 -21 -35 -44 0
-3 -21 -41 -44 0
-3 -26 -35 -41 0
-3 -26 -35 -44 0
-3 -26 -41 -44 0
-3 -35 -41 -44 0
-12 -13 -21 -26 0
-12 -13 -21 -35 0
-12 -13 -21 -41 0
-12 -13 -21 -44 0
-12 -13 -26 -35 0
-12 -13 -26 -41 0
-12 -13 -26 -44 0
-12 -13 -35 -41 0
-12 -13 -35 -44 0
-12 -13 -41 -44 0
-12 -21 -26 -35 0
-12 -21 -26 -41 0
-12 -21 -26 -44 0
-12 -21 -35 -41 0
-12 -21 -35 -44 0
-12 -21 -41 -44 0
-12 -26 -35 -41 0
-12 -26 -35 -44 0
-12 -26 -41 -44 0
-12 -35 -41 -44 0
-13 -21 -26 -35 0
-13 -21 -26 -41 0
-13 -21 -26 -44 0
-13 -21 -35 -41 0
-13 -21 -35 -44 0
-13 -21 -41 -44 0
-13 -26 -35 -41 0
-13 -26 -35 -44 0
-13 -26 -41 -44 0
-13 -35 -41 -44 0
-21 -26 -35 -41 0
-21 -26 -35 -44 0
-21 -26 -41 -44 0
-21 -35 -41 -44 0
-26 -35 -41 -44 0
-4 -7 -14 -22 0
-4 -7 -14 -27 0
-4 -7 -14 -36 0
-4 -7 -14 -42 0
-4 -7 -14 -45 0
-4 -7 -22 -27 0
-4 -7 -22 -36 0
-4 -7 -22 -42 0
-4 -7 -22 -45 0
-4 -7 -27 -36 0
-4 -7 -27 -42 0
-4 -7 -27 -45 0
-4 -7 -36 -42 0
-4 -7 -36 -45 0
-4 -7 -42 -45 0
-4 -14 -22 -27 0
-4 -14 -22 -36 0
-4 -14 -22 -42 0
-4 -14 -22 -45 0
-4 -14 -27 -36 0
-4 -14 -27 -42 0
-4 -14 -27 -45 0
-4 -14 -36 -42 0
-4 -14 -36 -45 0
-4 -14 -42 -45 0
-4 -22 -27 -36 0
-4 -22 -27 -42 0
-4 -22 -27 -45 0
-4 -22 -36 -42 0
-4 -22 -36 -45 0
-4 -22 -42 -45 0
-4 -27 -36 -42 0
-4 -27 -36 -45 0
-4 -27 -42 -45 0
-4 -36 -42 -45 0
-7 -14 -22 -27 0
-7 -14 -22 -36 0
-7 -14 -22 -42 0
-7 -14 -22 -45 0
-7 -14 -27 -36 0
-7 -14 -27 -42 0
-7 -14 -27 -45 0
-7 -14 -36 -42 0
-7 -14 -36 -45 0
-7 -14 -42 -45 0
-7 -22 -27 -36 0
-7 -22 -27 -42 0
-7 -22 -27 -45 0
-7 -22 -36 -42 0
-7 -22 -36 -45 0
-7 -22 -42 -45 0
-7 -27 -36 -42 0
-7 -27 -36 -45 0
-7 -27 -42 -45 0
-7 -36 -42 -45 0
-14 -22 -27 -36 0
-14 -22 -27 -42 0
-14 -22 -27 -45 0
-14 -22 -36 -42 0
-14 -22 -36 -45 0
-14 -22 -42 -45 0
-14 -27 -36 -42 0
-14 -27 -36 -45 0
-14 -27 -42 -45 0
-14 -36 -42 -45 0
-22 -27 -36 -42 0
-22 -27 -36 -45 0
-22 -27 -42 -45 0
-22 -36 -42 -45 0
-27 -36 -42 -45 0
-5 -8 -15 -23 0
-5 -8 -15 -28 0
-5 -8 -15 -31 0
-5 -8 -15 -37 0
-5 -8 -15 -46 0
-5 -8 -23 -28 0
-5 -8 -23 -31 0
-5 -8 -23 -37 0
-5 -8 -23 -46 0
-5 -8 -28 -31 0
-5 -8 -28 -37 0
-5 -8 -28 -46 0
-5 -8 -31 -37 0
-5 -8 -31 -46 0
-5 -8 -37 -46 0
-5 -15 -23 -28 0
-5 -15 -23 -31 0
-5 -15 -23 -37 0
-5 -15 -23 -46 0
-5 -15 -28 -31 0
-5 -15 -28 -37 0
-5 -15 -28 -46 0
-5 -15 -31 -37 0
-5 -15 -31 -46 0
-5 -15 -37 -46 0
-5 -23 -28 -31 0
-5 -23 -28 -37 0
-5 -23 -28 -46 0
-5 -23 -31 -37 0
-5 -23 -31 -46 0
-5 -23 -37 -46 0
-5 -28 -31 -37 0
-5 -28 -31 -46 0
-5 -28 -37 -46 0
-5 -31 -37 -46 0
-8 -15 -23 -28 0
-8 -15 -23 -31 0
-8 -15 -23 -37 0
-8 -15 -23 -46 0
-8 -15 -28 -31 0
-8 -15 -28 -37 0
-8 -15 -28 -46 0
-8 -15 -31 -37 0
-8 -15 -31 -46 0
-8 -15 -37 -46 0
-8 -23 -28 -31 0
-8 -23 -28 -37 0
-8 -23 -28 -46 0
-8 -23 -31 -37 0
-8 -23 -31 -46 0
-8 -23 -37 -46 0
-8 -28 -31 -37 0
-8 -28 -31 -46 0
-8 -28 -37 -46 0
-8 -31 -37 -46 0
-15 -23 -28 -31 0
-15 -23 -28 -37 0
-15 -23 -28 -46 0
-15 -23 -31 -37 0
-15 -23 -31 -46 0
-15 -23 -37 -46 0
-15 -28 -31 -37 0
-15 -28 -31 -46 0
-15 -28 -37 -46 0
-15 -31 -37 -46 0
-23 -28 -31 -37 0
-23 -28 -31 -46 0
-23 -28 -37 -46 0
-23 -31 -37 -46 0
-28 -31 -37 -46 0
-6 -9 -16 -24 0
-6 -9 -16 -29 0
-6 -9 -16 -32 0
-6 -9 -16 -38 0
-6 -9 -16 -47 0
-6 -9 -24 -29 0
-6 -9 -24 -32 0
-6 -9 -24 -38 0
-6 -9 -24 -47 0
-6 -9 -29 -32 0
-6 -9 -29 -38 0
-6 -9 -29 -47 0
-6 -9 -32 -38 0
-6 -9 -32 -47 0
-6 -9 -38 -47 0
-6 -16 -24 -29 0
-6 -16 -24 -32 0
-6 -16 -24 -38 0
-6 -16 -24 -47 0
-6 -16 -29 -32 0
-6 -16 -29 -38 0
-6 -16 -29 -47 0
-6 -16 -32 -38 0
-6 -16 -32 -47 0
-6 -16 -38 -47 0
-6 -24 -29 -32 0
-6 -24 -29 -38 0
-6 -24 -29 -47 0
-6 -24 -32 -38 0
-6 -24 -32 -47 0
-6 -24 -38 -47 0
-6 -29 -32 -38 0
-6 -29 -32 -47 0
-6 -29 -38 -47 0
-6 -32 -38 -47 0
-9 -16 -24 -29 0
-9 -16 -24 -32 0
-9 -16 -24 -38 0
-9 -16 -24 -47 0
-9 -16 -29 -32 0
-9 -16 -29 -38 0
-9 -16 -29 -47 0
-9 -16 -32 -38 0
-9 -16 -32 -47 0
-9 -16 -38 -47 0
-9 -24 -29 -32 0
-9 -24 -29 -38 0
-9 -24 -29 -47 0
-9 -24 -32 -38 0
-9 -24 -32 -47 0
-9 -24 -38 -47 0
-9 -29 -32 -38 0
-9 -29 -32 -47 0
-9 -29 -38 -47 0
-9 -32 -38 -47 0
-16 -24 -29 -32 0
-16 -24 -29 -38 0
-16 -24 -29 -47 0
-16 -24 -32 -38 0
-16 -24 -32 -47 0
-16 -24 -38 -47 0
-16 -29 -32 -38 0
-16 -29 -32 -47 0
-16 -29 -38 -47 0
-16 -32 -38 -47 0
-24 -29 -32 -38 0
-24 -29 -32 -47 0
-24 -29 -38 -47 0
-24 -32 -38 -47 0
-29 -32 -38 -47 0
-1 -10 -14 -22 0
-1 -10 -14 -29 0
-1 -10 -14 -31 0
-1 -10 -14 -37 0
-1 -10 -14 -44 0
-1 -10 -22 -29 0
-1 -10 -22 -31 0
-1 -10 -22 -37 0
-1 -10 -22 -44 0
-1 -10 -29 -31 0
-1 -10 -29 -37 0
-1 -10 -29 -44 0
-1 -10 -31 -37 0
-1 -10 -31 -44 0
-1 -10 -37 -44 0
-1 -14 -22 -29 0
-1 -14 -22 -31 0
-1 -14 -22 -37 0
-1 -14 -22 -44 0
-1 -14 -29 -31 0
-1 -14 -29 -37 0
-1 -14 -29 -44 0
-1 -14 -31 -37 0
-1 -14 -31 -44 0
-1 -14 -37 -44 0
-1 -22 -29 -31 0
-1 -22 -29 -37 0
-1 -22 -29 -44 0
-1 -22 -31 -37 0
-1 -22 -31 -44 0
-1 -22 -37 -44 0
-1 -29 -31 -37 0
-1 -29 -31 -44 0
-1 -29 -37 -44 0
-1 -31 -37 -44 0
-10 -14 -22 -29 0
-10 -14 -22 -31 0
-10 -14 -22 -37 0
-10 -14 -22 -44 0
-10 -14 -29 -31 0
-10 -14 -29 -37 0
-10 -14 -29 -44 0
-10 -14 -31 -37 0
-10 -14 -31 -44 0
-10 -14 -37 -44 0
-10 -22 -29 -31 0
-10 -22 -29 -37 0
-10 -22 -29 -44 0
-10 -22 -31 -37 0
-10 -22 -31 -44 0
-10 -22 -37 -44 0
-10 -29 -31 -37 0
-10 -29 -31 -44 0
-10 -29 -37 -44 0
-10 -31 -37 -44 0
-14 -22 -29 -31 0
-14 -22 -29 -37 0
-14 -22 -29 -44 0
-14 -22 -31 -37 0
-14 -22 -31 -44 0
-14 -22 -37 -44 0
-14 -29 -31 -37 0
-14 -29 -31 -44 0
-14 -29 -37 -44 0
-14 -31 -37 -44 0
-22 -29 -31 -37 0
-22 -29 -31 -44 0
-22 -29 -37 -44 0
-22 -31 -37 -44 0
-29 -31 -37 -44 0
-2 -11 -15 -23 0
-2 -11 -15 -30 0
-2 -11 -15 -32 0
-2 -11 -15 -38 0
-2 -11 -15 -45 0
-2 -11 -23 -30 0
-2 -11 -23 -32 0
-2 -11 -23 -38 0
-2 -11 -23 -45 0
-2 -11 -30 -32 0
-2 -11 -30 -38 0
-2 -11 -30 -45 0
-2 -11 -32 -38 0
-2 -11 -32 -45 0
-2 -11 -38 -45 0
-2 -15 -23 -30 0
-2 -15 -23 -32 0
-2 -15 -23 -38 0
-2 -15 -23 -45 0
-2 -15 -30 -32 0
-2 -15 -30 -38 0
-2 -15 -30 -45 0
-2 -15 -32 -38 0
-2 -15 -32 -45 0
-2 -15 -38 -45 0
-2 -23 -30 -32 0
-2 -23 -30 -38 0
-2 -23 -30 -45 0
-2 -23 -32 -38 0
-2 -23 -32 -45 0
-2 -23 -38 -45 0
-2 -30 -32 -38 0
-2 -30 -32 -45 0
-2 -30 -38 -45 0
-2 -32 -38 -45 0
-11 -15 -23 -30 0
-11 -15 -23 -32 0
-11 -15 -23 -38 0
-11 -15 -23 -45 0
-11 -15 -30 -32 0
-11 -15 -30 -38 0
-11 -15 -30 -45 0
-11 -15 -32 -38 0
-11 -15 -32 -45 0
-11 -15 -38 -45 0
-11 -23 -30 -32 0
-11 -23 -30 -38 0
-11 -23 -30 -45 0
-11 -23 -32 -38 0
-11 -23 -32 -45 0
-11 -23 -38 -45 0
-11 -30 -32 -38 0
-11 -30 -32 -45 0
-11 -30 -38 -45 0
-11 -32 -38 -45 0
-15 -23 -30 -32 0
-15 -23 -30 -38 0
-15 -23 -30 -45 0
-15 -23 -32 -38 0
-15 -23 -32 -45 0
-15 -23 -38 -45 0
-15 -30 -32 -38 0
-15 -30 -32 -45 0
-15 -30 -38 -45 0
-15 -32 -38 -45 0
-23 -30 -32 -38 0
-23 -30 -32 -45 0
-23 -30 -38 -45 0
-23 -32 -38 -45 0
-30 -32 -38 -45 0
-3 -12 -16 -24 0
-3 -12 -16 -25 0
-3 -12 -16 -33 0
-3 -12 -16 -39 0
-3 -12 -16 -46 0
-3 -12 -24 -25 0
-3 -12 -24 -33 0
-3 -12 -24 -39 0
-3 -12 -24 -46 0
-3 -12 -25 -33 0
-3 -12 -25 -39 0
-3 -12 -25 -46 0
-3 -12 -33 -39 0
-3 -12 -33 -46 0
-3 -12 -39 -46 0
-3 -16 -24 -25 0
-3 -16 -24 -33 0
-3 -16 -24 -39 0
-3 -16 -24 -46 0
-3 -16 -25 -33 0
-3 -16 -25 -39 0
-3 -16 -25 -46 0
-3 -16 -33 -39 0
-3 -16 -33 -46 0
-3 -16 -39 -46 0
-3 -24 -25 -33 0
-3 -24 -25 -39 0
-3 -24 -25 -46 0
-3 -24 -33 -39 0
-3 -24 -33 -46 0
-3 -24 -39 -46 0
-3 -25 -33 -39 0
-3 -25 -33 -46 0
-3 -25 -39 -46 0
-3 -33 -39 -46 0
-12 -16 -24 -25 0
-12 -16 -24 -33 0
-12 -16 -24 -39 0
-12 -16 -24 -46 0
-12 -16 -25 -33 0
-12 -16 -25 -39 0
-12 -16 -25 -46 0
-12 -16 -33 -39 0
-12 -16 -33 -46 0
-12 -16 -39 -46 0
-12 -24 -25 -33 0
-12 -24 -25 -39 0
-12 -24 -25 -46 0
-12 -24 -33 -39 0
-12 -24 -33 -46 0
-12 -24 -39 -46 0
-12 -25 -33 -39 0
-12 -25 -33 -46 0
-12 -25 -39 -46 0
-12 -33 -39 -46 0
-16 -24 -25 -33 0
-16 -24 -25 -39 0
-16 -24 -25 -46 0
-16 -24 -33 -39 0
-16 -24 -33 -46 0
-16 -24 -39 -46 0
-16 -25 -33 -39 0
-16 -25 -33 -46 0
-16 -25 -39 -46 0
-16 -33 -39 -46 0
-24 -25 -33 -39 0
-24 -25 -33 -46 0
-24 -25 -39 -46 0
-24 -33 -39 -46 0
-25 -33 -39 -46 0
-4 -7 -17 -19 0
-4 -7 -17 -26 0
-4 -7 -17 -34 0
-4 -7 -17 -40 0
-4 -7 -17 -47 0
-4 -7 -19 -26 0
-4 -7 -19 -34 0
-4 -7 -19 -40 0
-4 -7 -19 -47 0
-4 -7 -26 -34 0
-4 -7 -26 -40 0
-4 -7 -26 -47 0
-4 -7 -34 -40 0
-4 -7 -34 -47 0
-4 -7 -40 -47 0
-4 -17 -19 -26 0
-4 -17 -19 -34 0
-4 -17 -19 -40 0
-4 -17 -19 -47 0
-4 -17 -26 -34 0
-4 -17 -26 -40 0
-4 -17 -26 -47 0
-4 -17 -34 -40 0
-4 -17 -34 -47 0
-4 -17 -40 -47 0
-4 -19 -26 -34 0
-4 -19 -26 -40 0
-4 -19 -26 -47 0
-4 -19 -34 -40 0
-4 -19 -34 -47 0
-4 -19 -40 -47 0
-4 -26 -34 -40 0
-4 -26 -34 -47 0
-4 -26 -40 -47 0
-4 -34 -40 -47 0
-7 -17 -19 -26 0
-7 -17 -19 -34 0
-7 -17 -19 -40 0
-7 -17 -19 -47 0
-7 -17 -26 -34 0
-7 -17 -26 -40 0
-7 -17 -26 -47 0
-7 -17 -34 -40 0
-7 -17 -34 -47 0
-7 -17 -40 -47 0
-7 -19 -26 -34 0
-7 -19 -26 -40 0
-7 -19 -26 -47 0
-7 -19 -34 -40 0
-7 -19 -34 -47 0
-7 -19 -40 -47 0
-7 -26 -34 -40 0
-7 -26 -34 -47 0
-7 -26 -40 -47 0
-7 -34 -40 -47 0
-17 -19 -26 -34 0
-17 -19 -26 -40 0
-17 -19 -26 -47 0
-17 -19 -34 -40 0
-17 -19 -34 -47 0
-17 -19 -40 -47 0
-17 -26 -34 -40 0
-17 -26 -34 -47 0
-17 -26 -40 -47 0
-17 -34 -40 -47 0
-19 -26 -34 -40 0
-19 -26 -34 -47 0
-19 -26 -40 -47 0
-19 -34 -40 -47 0
-26 -34 -40 -47 0
-6 -8 -18 -20 0
-6 -8 -18 -27 0
-6 -8 -18 -35 0
-6 -8 -18 -41 0
-6 -8 -18 -48 0
-6 -8 -20 -27 0
-6 -8 -20 -35 0
-6 -8 -20 -41 0
-6 -8 -20 -48 0
-6 -8 -27 -35 0
-6 -8 -27 -41 0
-6 -8 -27 -48 0
-6 -8 -35 -41 0
-6 -8 -35 -48 0
-6 -8 -41 -48 0
-6 -18 -20 -27 0
-6 -18 -20 -35 0
-6 -18 -20 -41 0
-6 -18 -20 -48 0
-6 -18 -27 -35 0
-6 -18 -27 -41 0
-6 -18 -27 -48 0
-6 -18 -35 -41 0
-6 -18 -35 -48 0
-6 -18 -41 -48 0
-6 -20 -27 -35 0
-6 -20 -27 -41 0
-6 -20 -27 -48 0
-6 -20 -35 -41 0
-6 -20 -35 -48 0
-6 -20 -41 -48 0
-6 -27 -35 -41 0
-6 -27 -35 -48 0
-6 -27 -41 -48 0
-6 -35 -41 -48 0
-8 -18 -20 -27 0
-8 -18 -20 -35 0
-8 -18 -20 -41 0
-8 -18 -20 -48 0
-8 -18 -27 -35 0
-8 -18 -27 -41 0
-8 -18 -27 -48 0
-8 -18 -35 -41 0
-8 -18 -35 -48 0
-8 -18 -41 -48 0
-8 -20 -27 -35 0
-8 -20 -27 -41 0
-8 -20 -27 -48 0
-8 -20 -35 -41 0
-8 -20 -35 -48 0
-8 -20 -41 -48 0
-8 -27 -35 -41 0
-8 -27 -35 -48 0
-8 -27 -41 -48 0
-8 -35 -41 -48 0
-18 -20 -27 -35 0
-18 -20 -27 -41 0
-18 -20 -27 -48 0
-18 -20 -35 -41 0
-18 -20 -35 -48 0
-18 -20 -41 -48 0
-18 -27 -35 -41 0
-18 -27 -35 -48 0
-18 -27 -41 -48 0
-18 -35 -41 -48 0
-20 -27 -35 -41 0
-20 -27 -35 -48 0
-20 -27 -41 -48 0
-20 -35 -41 -48 0
-27 -35 -41 -48 0
-6 -9 -13 -20 0
-6 -9 -13 -25 0
-6 -9 -13 -36 0
-6 -9 -13 -42 0
-6 -9 -13 -43 0
-6 -9 -20 -25 0
-6 -9 -20 -36 0
-6 -9 -20 -42 0
-6 -9 -20 -43 0
-6 -9 -25 -36 0
-6 -9 -25 -42 0
-6 -9 -25 -43 0
-6 -9 -36 -42 0
-6 -9 -36 -43 0
-6 -9 -42 -43 0
-6 -13 -20 -25 0
-6 -13 -20 -36 0
-6 -13 -20 -42 0
-6 -13 -20 -43 0
-6 -13 -25 -36 0
-6 -13 -25 -42 0
-6 -13 -25 -43 0
-6 -13 -36 -42 0
-6 -13 -36 -43 0
-6 -13 -42 -43 0
-6 -20 -25 -36 0
-6 -20 -25 -42 0
-6 -20 -25 -43 0
-6 -20 -36 -42 0
-6 -20 -36 -43 0
-6 -20 -42 -43 0
-6 -25 -36 -42 0
-6 -25 -36 -43 0
-6 -25 -42 -43 0
-6 -36 -42 -43 0
-9 -13 -20 -25 0
-9 -13 -20 -36 0
-9 -13 -20 -42 0
-9 -13 -20 -43 0
-9 -13 -25 -36 0
-9 -13 -25 -42 0
-9 -13 -25 -43 0
-9 -13 -36 -42 0
-9 -13 -36 -43 0
-9 -13 -42 -43 0
-9 -20 -25 -36 0
-9 -20 -25 -42 0
-9 -20 -25 -43 0
-9 -20 -36 -42 0
-9 -20 -36 -43 0
-9 -20 -42 -43 0
-9 -25 -36 -42 0
-9 -25 -36 -43 0
-9 -25 -42 -43 0
-9 -36 -42 -43 0
-13 -20 -25 -36 0
-13 -20 -25 -42 0
-13 -20 -25 -43 0
-13 -20 -36 -42 0
-13 -20 -36 -43 0
-13 -20 -42 -43 0
-13 -25 -36 -42 0
-13 -25 -36 -43 0
-13 -25 -42 -43 0
-13 -36 -42 -43 0
-20 -25 -36 -42 0
-20 -25 -36 -43 0
-20 -25 -42 -43 0
-20 -36 -42 -43 0
-25 -36 -42 -43 0
-1 -9 -17 -23 0
-1 -9 -17 -27 0
-1 -9 -17 -33 0
-1 -9 -17 -41 0
-1 -9 -17 -46 0
-1 -9 -23 -27 0
-1 -9 -23 -33 0
-1 -9 -23 -41 0
-1 -9 -23 -46 0
-1 -9 -27 -33 0
-1 -9 -27 -41 0
-1 -9 -27 -46 0
-1 -9 -33 -41 0
-1 -9 -33 -46 0
-1 -9 -41 -46 0
-1 -17 -23 -27 0
-1 -17 -23 -33 0
-1 -17 -23 -41 0
-1 -17 -23 -46 0
-1 -17 -27 -33 0
-1 -17 -27 -41 0
-1 -17 -27 -46 0
-1 -17 -33 -41 0
-1 -17 -33 -46 0
-1 -17 -41 -46 0
-1 -23 -27 -33 0
-1 -23 -27 -41 0
-1 -23 -27 -46 0
-1 -23 -33 -41 0
-1 -23 -33 -46 0
-1 -23 -41 -46 0
-1 -27 -33 -41 0
-1 -27 -33 -46 0
-1 -27 -41 -46 0
-1 -33 -41 -46 0
-9 -17 -23 -27 0
-9 -17 -23 -33 0
-9 -17 -23 -41 0
-9 -17 -23 -46 0
-9 -17 -27 -33 0
-9 -17 -27 -41 0
-9 -17 -27 -46 0
-9 -17 -33 -41 0
-9 -17 -33 -46 0
-9 -17 -41 -46 0
-9 -23 -27 -33 0
-9 -23 -27 -41 0
-9 -23 -27 -46 0
-9 -23 -33 -41 0
-9 -23 -33 -46 0
-9 -23 -41 -46 0
-9 -27 -33 -41 0
-9 -27 -33 -46 0
-9 -27 -41 -46 0
-9 -33 -41 -46 0
-17 -23 -27 -33 0
-17 -23 -27 -41 0
-17 -23 -27 -46 0
-17 -23 -33 -41 0
-17 -23 -33 -46 0
-17 -23 -41 -46 0
-17 -27 -33 -41 0
-17 -27 -33 -46 0
-17 -27 -41 -46 0
-17 -33 -41 -46 0
-23 -27 -33 -41 0
-23 -27 -33 -46 0
-23 -27 -41 -46 0
-23 -33 -41 -46 0
-27 -33 -41 -46 0
-2 -10 -18 -24 0
-2 -10 -18 -28 0
-2 -10 -18 -34 0
-2 -10 -18 -37 0
-2 -10 -18 -47 0
-2 -10 -24 -28 0
-2 -10 -24 -34 0
-2 -10 -24 -37 0
-2 -10 -24 -47 0
-2 -10 -28 -34 0
-2 -10 -28 -37 0
-2 -10 -28 -47 0
-2 -10 -34 -37 0
-2 -10 -34 -47 0
-2 -10 -37 -47 0
-2 -18 -24 -28 0
-2 -18 -24 -34 0
-2 -18 -24 -37 0
-2 -18 -24 -47 0
-2 -18 -28 -34 0
-2 -18 -28 -37 0
-2 -18 -28 -47 0
-2 -18 -34 -37 0
-2 -18 -34 -47 0
-2 -18 -37 -47 0
-2 -24 -28 -34 0
-2 -24 -28 -37 0
-2 -24 -28 -47 0
-2 -24 -34 -37 0
-2 -24 -34 -47 0
-2 -24 -37 -47 0
-2 -28 -34 -37 0
-2 -28 -34 -47 0
-2 -28 -37 -47 0
-2 -34 -37 -47 0
-10 -18 -24 -28 0
-10 -18 -24 -34 0
-10 -18 -24 -37 0
-10 -18 -24 -47 0
-10 -18 -28 -34 0
-10 -18 -28 -37 0
-10 -18 -28 -47 0
-10 -18 -34 -37 0
-10 -18 -34 -47 0
-10 -18 -37 -47 0
-10 -24 -28 -34 0
-10 -24 -28 -37 0
-10 -24 -28 -47 0
-10 -24 -34 -37 0
-10 -24 -34 -47 0
-10 -24 -37 -47 0
-10 -28 -34 -37 0
-10 -28 -34 -47 0
-10 -28 -37 -47 0
-10 -34 -37 -47 0
-18 -24 -28 -34 0
-18 -24 -28 -37 0
-18 -24 -28 -47 0
-18 -24 -34 -37 0
-18 -24 -34 -47 0
-18 -24 -37 -47 0
-18 -28 -34 -37 0
-18 -28 -34 -47 0
-18 -28 -37 -47 0
-18 -34 -37 -47 0
-24 -28 -34 -37 0
-24 -28 -34 -47 0
-24 -28 -37 -47 0
-24 -34 -37 -47 0
-28 -34 -37 -47 0
-3 -11 -13 -19 0
-3 -11 -13 -29 0
-3 -11 -13 -35 0
-3 -11 -13 -38 0
-3 -11 -13 -48 0
-3 -11 -19 -29 0
-3 -11 -19 -35 0
-3 -11 -19 -38 0
-3 -11 -19 -48 0
-3 -11 -29 -35 0
-3 -11 -29 -38 0
-3 -11 -29 -48 0
-3 -11 -35 -38 0
-3 -11 -35 -48 0
-3 -11 -38 -48 0
-3 -13 -19 -29 0
-3 -13 -19 -35 0
-3 -13 -19 -38 0
-3 -13 -19 -48 0
-3 -13 -29 -35 0
-3 -13 -29 -38 0
-3 -13 -29 -48 0
-3 -13 -35 -38 0
-3 -13 -35 -48 0
-3 -13 -38 -48 0
-3 -19 -29 -35 0
-3 -19 -29 -38 0
-3 -19 -29 -48 0
-3 -19 -35 -38 0
-3 -19 -35 -48 0
-3 -19 -38 -48 0
-3 -29 -35 -38 0
-3 -29 -35 -48 0
-3 -29 -38 -48 0
-3 -35 -38 -48 0
-11 -13 -19 -29 0
-11 -13 -19 -35 0
-11 -13 -19 -38 0
-11 -13 -19 -48 0
-11 -13 -29 -35 0
-11 -13 -29 -38 0
-11 -13 -29 -48 0
-11 -13 -35 -38 0
-11 -13 -35 -48 0
-11 -13 -38 -48 0
-11 -19 -29 -35 0
-11 -19 -29 -38 0
-11 -19 -29 -48 0
-11 -19 -35 -38 0
-11 -19 -35 -48 0
-11 -19 -38 -48 0
-11 -29 -35 -38 0
-11 -29 -35 -48 0
-11 -29 -38 -48 0
-11 -35 -38 -48 0
-13 -19 -29 -35 0
-13 -19 -29 -38 0
-13 -19 -29 -48 0
-13 -19 -35 -38 0
-13 -19 -35 -48 0
-13 -19 -38 -48 0
-13 -29 -35 -38 0
-13 -29 -35 -48 0
-13 -29 -38 -48 0
-13 -35 -38 -48 0
-19 -29 -35 -38 0
-19 -29 -35 -48 0
-19 -29 -38 -48 0
-19 -35 -38 -48 0
-29 -35 -38 -48 0
-4 -12 -14 -20 0
-4 -12 -14 -30 0
-4 -12 -14 -36 0
-4 -12 -14 -39 0
-4 -12 -14 -43 0
-4 -12 -20 -30 0
-4 -12 -20 -36 0
-4 -12 -20 -39 0
-4 -12 -20 -43 0
-4 -12 -30 -36 0
-4 -12 -30 -39 0
-4 -12 -30 -43 0
-4 -12 -36 -39 0
-4 -12 -36 -43 0
-4 -12 -39 -43 0
-4 -14 -20 -30 0
-4 -14 -20 -36 0
-4 -14 -20 -39 0
-4 -14 -20 -43 0
-4 -14 -30 -36 0
-4 -14 -30 -39 0
-4 -14 -30 -43 0
-4 -14 -36 -39 0
-4 -14 -36 -43 0
-4 -14 -39 -43 0
-4 -20 -30 -36 0
-4 -20 -30 -39 0
-4 -20 -30 -43 0
-4 -20 -36 -39 0
-4 -20 -36 -43 0
-4 -20 -39 -43 0
-4 -30 -36 -39 0
-4 -30 -36 -43 0
-4 -30 -39 -43 0
-4 -36 -39 -43 0
-12 -14 -20 -30 0
-12 -14 -20 -36 0
-12 -14 -20 -39 0
-12 -14 -20 -43 0
-12 -14 -30 -36 0
-12 -14 -30 -39 0
-12 -14 -30 -43 0
-12 -14 -36 -39 0
-12 -14 -36 -43 0
-12 -14 -39 -43 0
-12 -20 -30 -36 0
-12 -20 -30 -39 0
-12 -20 -30 -43 0
-12 -20 -36 -39 0
-12 -20 -36 -43 0
-12 -20 -39 -43 0
-12 -30 -36 -39 0
-12 -30 -36 -43 0
-12 -30 -39 -43 0
-12 -36 -39 -43 0
-14 -20 -30 -36 0
-14 -20 -30 -39 0
-14 -20 -30 -43 0
-14 -20 -36 -39 0
-14 -20 -36 -43 0
-14 -20 -39 -43 0
-14 -30 -36 -39 0
-14 -30 -36 -43 0
-14 -30 -39 -43 0
-14 -36 -39 -43 0
-20 -30 -36 -39 0
-20 -30 -36 -43 0
-20 -30 -39 -43 0
-20 -36 -39 -43 0
-30 -36 -39 -43 0
-5 -7 -15 -21 0
-5 -7 -15 -25 0
-5 -7 -15 -31 0
-5 -7 -15 -40 0
-5 -7 -15 -44 0
-5 -7 -21 -25 0
-5 -7 -21 -31 0
-5 -7 -21 -40 0
-5 -7 -21 -44 0
-5 -7 -25 -31 0
-5 -7 -25 -40 0
-5 -7 -25 -44 0
-5 -7 -31 -40 0
-5 -7 -31 -44 0
-5 -7 -40 -44 0
-5 -15 -21 -25 0
-5 -15 -21 -31 0
-5 -15 -21 -40 0
-5 -15 -21 -44 0
-5 -15 -25 -31 0
-5 -15 -25 -40 0
-5 -15 -25 -44 0
-5 -15 -31 -40 0
-5 -15 -31 -44 0
-5 -15 -40 -44 0
-5 -21 -25 -31 0
-5 -21 -25 -40 0
-5 -21 -25 -44 0
-5 -21 -31 -40 0
-5 -21 -31 -44 0
-5 -21 -40 -44 0
-5 -25 -31 -40 0
-5 -25 -31 -44 0
-5 -25 -40 -44 0
-5 -31 -40 -44 0
-7 -15 -21 -25 0
-7 -15 -21 -31 0
-7 -15 -21 -40 0
-7 -15 -21 -44 0
-7 -15 -25 -31 0
-7 -15 -25 -40 0
-7 -15 -25 -44 0
-7 -15 -31 -40 0
-7 -15 -31 -44 0
-7 -15 -40 -44 0
-7 -21 -25 -31 0
-7 -21 -25 -40 0
-7 -21 -25 -44 0
-7 -21 -31 -40 0
-7 -21 -31 -44 0
-7 -21 -40 -44 0
-7 -25 -31 -40 0
-7 -25 -31 -44 0
-7 -25 -40 -44 0
-7 -31 -40 -44 0
-15 -21 -25 -31 0
-15 -21 -25 -40 0
-15 -21 -25 -44 0
-15 -21 -31 -40 0
-15 -21 -31 -44 0
-15 -21 -40 -44 0
-15 -25 -31 -40 0
-15 -25 -31 -44 0
-15 -25 -40 -44 0
-15 -31 -40 -44 0
-21 -25 -31 -40 0
-21 -25 -31 -44 0
-21 -25 -40 -44 0
-21 -31 -40 -44 0
-25 -31 -40 -44 0
-6 -8 -16 -22 0
-6 -8 -16 -26 0
-6 -8 -16 -32 0
-6 -8 -16 -41 0
-6 -8 -16 -45 0
-6 -8 -22 -26 0
-6 -8 -22 -32 0
-6 -8 -22 -41 0
-6 -8 -22 -45 0
-6 -8 -26 -32 0
-6 -8 -26 -41 0
-6 -8 -26 -45 0
-6 -8 -32 -41 0
-6 -8 -32 -45 0
-6 -8 -41 -45 0
-6 -16 -22 -26 0
-6 -16 -22 -32 0
-6 -16 -22 -41 0
-6 -16 -22 -45 0
-6 -16 -26 -32 0
-6 -16 -26 -41 0
-6 -16 -26 -45 0
-6 -16 -32 -41 0
-6 -16 -32 -45 0
-6 -16 -41 -45 0
-6 -22 -26 -32 0
-6 -22 -26 -41 0
-6 -22 -26 -45 0
-6 -22 -32 -41 0
-6 -22 -32 -45 0
-6 -22 -41 -45 0
-6 -26 -32 -41 0
-6 -26 -32 -45 0
-6 -26 -41 -45 0
-6 -32 -41 -45 0
-8 -16 -22 -26 0
-8 -16 -22 -32 0
-8 -16 -22 -41 0
-8 -16 -22 -45 0
-8 -16 -26 -32 0
-8 -16 -26 -41 0
-8 -16 -26 -45 0
-8 -16 -32 -41 0
-8 -16 -32 -45 0
-8 -16 -41 -45 0
-8 -22 -26 -32 0
-8 -22 -26 -41 0
-8 -22 -26 -45 0
-8 -22 -32 -41 0
-8 -22 -32 -45 0
-8 -22 -41 -45 0
-8 -26 -32 -41 0
-8 -26 -32 -45 0
-8 -26 -41 -45 0
-8 -32 -41 -45 0
-16 -22 -26 -32 0
-16 -22 -26 -41 0
-16 -22 -26 -45 0
-16 -22 -32 -41 0
-16 -22 -32 -45 0
-16 -22 -41 -45 0
-16 -26 -32 -41 0
-16 -26 -32 -45 0
-16 -26 -41 -45 0
-16 -32 -41 -45 0
-22 -26 -32 -41 0
-22 -26 -32 -45 0
-22 -26 -41 -45 0
-22 -32 -41 -45 0
-26 -32 -41 -45 0
-1 -9 -16 -19 0
-1 -9 -16 -28 0
-1 -9 -16 -33 0
-1 -9 -16 -40 0
-1 -9 -16 -44 0
-1 -9 -19 -28 0
-1 -9 -19 -33 0
-1 -9 -19 -40 0
-1 -9 -19 -44 0
-1 -9 -28 -33 0
-1 -9 -28 -40 0
-1 -9 -28 -44 0
-1 -9 -33 -40 0
-1 -9 -33 -44 0
-1 -9 -40 -44 0
-1 -16 -19 -28 0
-1 -16 -19 -33 0
-1 -16 -19 -40 0
-1 -16 -19 -44 0
-1 -16 -28 -33 0
-1 -16 -28 -40 0
-1 -16 -28 -44 0
-1 -16 -33 -40 0
-1 -16 -33 -44 0
-1 -16 -40 -44 0
-1 -19 -28 -33 0
-1 -19 -28 -40 0
-1 -19 -28 -44 0
-1 -19 -33 -40 0
-1 -19 -33 -44 0
-1 -19 -40 -44 0
-1 -28 -33 -40 0
-1 -28 -33 -44 0
-1 -28 -40 -44 0
-1 -33 -40 -44 0
-9 -16 -19 -28 0
-9 -16 -19 -33 0
-9 -16 -19 -40 0
-9 -16 -19 -44 0
-9 -16 -28 -33 0
-9 -16 -28 -40 0
-9 -16 -28 -44 0
-9 -16 -33 -40 0
-9 -16 -33 -44 0
-9 -16 -40 -44 0
-9 -19 -28 -33 0
-9 -19 -28 -40 0
-9 -19 -28 -44 0
-9 -19 -33 -40 0
-9 -19 -33 -44 0
-9 -19 -40 -44 0
-9 -28 -33 -40 0
-9 -28 -33 -44 0
-9 -28 -40 -44 0
-9 -33 -40 -44 0
-16 -19 -28 -33 0
-16 -19 -28 -40 0
-16 -19 -28 -44 0
-16 -19 -33 -40 0
-16 -19 -33 -44 0
-16 -19 -40 -44 0
-16 -28 -33 -40 0
-16 -28 -33 -44 0
-16 -28 -40 -44 0
-16 -33 -40 -44 0
-19 -28 -33 -40 0
-19 -28 -33 -44 0
-19 -28 -40 -44 0
-19 -33 -40 -44 0
-28 -33 -40 -44 0
-2 -10 -17 -20 0
-2 -10 -17 -29 0
-2 -10 -17 -34 0
-2 -10 -17 -41 0
-2 -10 -17 -45 0
-2 -10 -20 -29 0
-2 -10 -20 -34 0
-2 -10 -20 -41 0
-2 -10 -20 -45 0
-2 -10 -29 -34 0
-2 -10 -29 -41 0
-2 -10 -29 -45 0
-2 -10 -34 -41 0
-2 -10 -34 -45 0
-2 -10 -41 -45 0
-2 -17 -20 -29 0
-2 -17 -20 -34 0
-2 -17 -20 -41 0
-2 -17 -20 -45 0
-2 -17 -29 -34 0
-2 -17 -29 -41 0
-2 -17 -29 -45 0
-2 -17 -34 -41 0
-2 -17 -34 -45 0
-2 -17 -41 -45 0
-2 -20 -29 -34 0
-2 -20 -29 -41 0
-2 -20 -29 -45 0
-2 -20 -34 -41 0
-2 -20 -34 -45 0
-2 -20 -41 -45 0
-2 -29 -34 -41 0
-2 -29 -34 -45 0
-2 -29 -41 -45 0
-2 -34 -41 -45 0
-10 -17 -20 -29 0
-10 -17 -20 -34 0
-10 -17 -20 -41 0
-10 -17 -20 -45 0
-10 -17 -29 -34 0
-10 -17 -29 -41 0
-10 -17 -29 -45 0
-10 -17 -34 -41 0
-10 -17 -34 -45 0
-10 -17 -41 -45 0
-10 -20 -29 -34 0
-10 -20 -29 -41 0
-10 -20 -29 -45 0
-10 -20 -34 -41 0
-10 -20 -34 -45 0
-10 -20 -41 -45 0
-10 -29 -34 -41 0
-10 -29 -34 -45 0
-10 -29 -41 -45 0
-10 -34 -41 -45 0
-17 -20 -29 -34 0
-17 -20 -29 -41 0
-17 -20 -29 -45 0
-17 -20 -34 -41 0
-17 -20 -34 -45 0
-17 -20 -41 -45 0
-17 -29 -34 -41 0
-17 -29 -34 -45 0
-17 -29 -41 -45 0
-17 -34 -41 -45 0
-20 -29 -34 -41 0
-20 -29 -34 -45 0
-20 -29 -41 -45 0
-20 -34 -41 -45 0
-29 -34 -41 -45 0
-3 -11 -18 -21 0
-3 -11 -18 -30 0
-3 -11 -18 -35 0
-3 -11 -18 -42 0
-3 -11 -18 -46 0
-3 -11 -21 -30 0
-3 -11 -21 -35 0
-3 -11 -21 -42 0
-3 -11 -21 -46 0
-3 -11 -30 -35 0
-3 -11 -30 -42 0
-3 -11 -30 -46 0
-3 -11 -35 -42 0
-3 -11 -35 -46 0
-3 -11 -42 -46 0
-3 -18 -21 -30 0
-3 -18 -21 -35 0
-3 -18 -21 -42 0
-3 -18 -21 -46 0
-3 -18 -30 -35 0
-3 -18 -30 -42 0
-3 -18 -30 -46 0
-3 -18 -35 -42 0
-3 -18 -35 -46 0
-3 -18 -42 -46 0
-3 -21 -30 -35 0
-3 -21 -30 -42 0
-3 -21 -30 -46 0
-3 -21 -35 -42 0
-3 -21 -35 -46 0
-3 -21 -42 -46 0
-3 -30 -35 -42 0
-3 -30 -35 -46 0
-3 -30 -42 -46 0
-3 -35 -42 -46 0
-11 -18 -21 -30 0
-11 -18 -21 -35 0
-11 -18 -21 -42 0
-11 -18 -21 -46 0
-11 -18 -30 -35 0
-11 -18 -30 -42 0
-11 -18 -30 -46 0
-11 -18 -35 -42 0
-11 -18 -35 -46 0
-11 -18 -42 -46 0
-11 -21 -30 -35 0
-11 -21 -30 -42 0
-11 -21 -30 -46 0
-11 -21 -35 -42 0
-11 -21 -35 -46 0
-11 -21 -42 -46 0
-11 -30 -35 -42 0
-11 -30 -35 -46 0
-11 -30 -42 -46 0
-11 -35 -42 -46 0
-18 -21 -30 -35 0
-18 -21 -30 -42 0
-18 -21 -30 -46 0
-18 -21 -35 -42 0
-18 -21 -35 -46 0
-18 -21 -42 -46 0
-18 -30 -35 -42 0
-18 -30 -35 -46 0
-18 -30 -42 -46 0
-18 -35 -42 -46 0
-21 -30 -35 -42 0
-21 -30 -35 -46 0
-21 -30 -42 -46 0
-21 -35 -42 -46 0
-30 -35 -42 -46 0
-4 -12 -13 -22 0
-4 -12 -13 -25 0
-4 -12 -13 -36 0
-4 -12 -13 -37 0
-4 -12 -13 -47 0
-4 -12 -22 -25 0
-4 -12 -22 -36 0
-4 -12 -22 -37 0
-4 -12 -22 -47 0
-4 -12 -25 -36 0
-4 -12 -25 -37 0
-4 -12 -25 -47 0
-4 -12 -36 -37 0
-4 -12 -36 -47 0
-4 -12 -37 -47 0
-4 -13 -22 -25 0
-4 -13 -22 -36 0
-4 -13 -22 -37 0
-4 -13 -22 -47 0
-4 -13 -25 -36 0
-4 -13 -25 -37 0
-4 -13 -25 -47 0
-4 -13 -36 -37 0
-4 -13 -36 -47 0
-4 -13 -37 -47 0
-4 -22 -25 -36 0
-4 -22 -25 -37 0
-4 -22 -25 -47 0
-4 -22 -36 -37 0
-4 -22 -36 -47 0
-4 -22 -37 -47 0
-4 -25 -36 -37 0
-4 -25 -36 -47 0
-4 -25 -37 -47 0
-4 -36 -37 -47 0
-12 -13 -22 -25 0
-12 -13 -22 -36 0
-12 -13 -22 -37 0
-12 -13 -22 -47 0
-12 -13 -25 -36 0
-12 -13 -25 -37 0
-12 -13 -25 -47 0
-12 -13 -36 -37 0
-12 -13 -36 -47 0
-12 -13 -37 -47 0
-12 -22 -25 -36 0
-12 -22 -25 -37 0
-12 -22 -25 -47 0
-12 -22 -36 -37 0
-12 -22 -36 -47 0
-12 -22 -37 -47 0
-12 -25 -36 -37 0
-12 -25 -36 -47 0
-12 -25 -37 -47 0
-12 -36 -37 -47 0
-13 -22 -25 -36 0
-13 -22 -25 -37 0
-13 -22 -25 -47 0
-13 -22 -36 -37 0
-13 -22 -36 -47 0
-13 -22 -37 -47 0
-13 -25 -36 -37 0
-13 -25 -36 -47 0
-13 -25 -37 -47 0
-13 -36 -37 -47 0
-22 -25 -36 -37 0
-22 -25 -36 -47 0
-22 -25 -37 -47 0
-22 -36 -37 -47 0
-25 -36 -37 -47 0
-5 -7 -14 -23 0
-5 -7 -14 -26 0
-5 -7 -14 -31 0
-5 -7 -14 -38 0
-5 -7 -14 -48 0
-5 -7 -23 -26 0
-5 -7 -23 -31 0
-5 -7 -23 -38 0
-5 -7 -23 -48 0
-5 -7 -26 -31 0
-5 -7 -26 -38 0
-5 -7 -26 -48 0
-5 -7 -31 -38 0
-5 -7 -31 -48 0
-5 -7 -38 -48 0
-5 -14 -23 -26 0
-5 -14 -23 -31 0
-5 -14 -23 -38 0
-5 -14 -23 -48 0
-5 -14 -26 -31 0
-5 -14 -26 -38 0
-5 -14 -26 -48 0
-5 -14 -31 -38 0
-5 -14 -31 -48 0
-5 -14 -38 -48 0
-5 -23 -26 -31 0
-5 -23 -26 -38 0
-5 -23 -26 -48 0
-5 -23 -31 -38 0
-5 -23 -31 -48 0
-5 -23 -38 -48 0
-5 -26 -31 -38 0
-5 -26 -31 -48 0
-5 -26 -38 -48 0
-5 -31 -38 -48 0
-7 -14 -23 -26 0
-7 -14 -23 -31 0
-7 -14 -23 -38 0
-7 -14 -23 -48 0
-7 -14 -26 -31 0
-7 -14 -26 -38 0
-7 -14 -26 -48 0
-7 -14 -31 -38 0
-7 -14 -31 -48 0
-7 -14 -38 -48 0
-7 -23 -26 -31 0
-7 -23 -26 -38 0
-7 -23 -26 -48 0
-7 -23 -31 -38 0
-7 -23 -31 -48 0
-7 -23 -38 -48 0
-7 -26 -31 -38 0
-7 -26 -31 -48 0
-7 -26 -38 -48 0
-7 -31 -38 -48 0
-14 -23 -26 -31 0
-14 -23 -26 -38 0
-14 -23 -26 -48 0
-14 -23 -31 -38 0
-14 -23 -31 -48 0
-14 -23 -38 -48 0
-14 -26 -31 -38 0
-14 -26 -31 -48 0
-14 -26 -38 -48 0
-14 -31 -38 -48 0
-23 -26 -31 -38 0
-23 -26 -31 -48 0
-23 -26 -38 -48 0
-23 -31 -38 -48 0
-26 -31 -38 -48 0
-6 -8 -15 -24 0
-6 -8 -15 -27 0
-6 -8 -15 -32 0
-6 -8 -15 -39 0
-6 -8 -15 -43 0
-6 -8 -24 -27 0
-6 -8 -24 -32 0
-6 -8 -24 -39 0
-6 -8 -24 -43 0
-6 -8 -27 -32 0
-6 -8 -27 -39 0
-6 -8 -27 -43 0
-6 -8 -32 -39 0
-6 -8 -32 -43 0
-6 -8 -39 -43 0
-6 -15 -24 -27 0
-6 -15 -24 -32 0
-6 -15 -24 -39 0
-6 -15 -24 -43 0
-6 -15 -27 -32 0
-6 -15 -27 -39 0
-6 -15 -27 -43 0
-6 -15 -32 -39 0
-6 -15 -32 -43 0
-6 -15 -39 -43 0
-6 -24 -27 -32 0
-6 -24 -27 -39 0
-6 -24 -27 -43 0
-6 -24 -32 -39 0
-6 -24 -32 -43 0
-6 -24 -39 -43 0
-6 -27 -32 -39 0
-6 -27 -32 -43 0
-6 -27 -39 -43 0
-6 -32 -39 -43 0
-8 -15 -24 -27 0
-8 -15 -24 -32 0
-8 -15 -24 -39 0
-8 -15 -24 -43 0
-8 -15 -27 -32 0
-8 -15 -27 -39 0
-8 -15 -27 -43 0
-8 -15 -32 -39 0
-8 -15 -32 -43 0
-8 -15 -39 -43 0
-8 -24 -27 -32 0
-8 -24 -27 -39 0
-8 -24 -27 -43 0
-8 -24 -32 -39 0
-8 -24 -32 -43 0
-8 -24 -39 -43 0
-8 -27 -32 -39 0
-8 -27 -32 -43 0
-8 -27 -39 -43 0
-8 -32 -39 -43 0
-15 -24 -27 -32 0
-15 -24 -27 -39 0
-15 -24 -27 -43 0
-15 -24 -32 -39 0
-15 -24 -32 -43 0
-15 -24 -39 -43 0
-15 -27 -32 -39 0
-15 -27 -32 -43 0
-15 -27 -39 -43 0
-15 -32 -39 -43 0
-24 -27 -32 -39 0
-24 -27 -32 -43 0
-24 -27 -39 -43 0
-24 -32 -39 -43 0
-27 -32 -39 -43 0
-1 -12 -14 -23 0
-1 -12 -14 -28 0
-1 -12 -14 -36 0
-1 -12 -14 -41 0
-1 -12 -14 -47 0
-1 -12 -23 -28 0
-1 -12 -23 -36 0
-1 -12 -23 -41 0
-1 -12 -23 -47 0
-1 -12 -28 -36 0
-1 -12 -28 -41 0
-1 -12 -28 -47 0
-1 -12 -36 -41 0
-1 -12 -36 -47 0
-1 -12 -41 -47 0
-1 -14 -23 -28 0
-1 -14 -23 -36 0
-1 -14 -23 -41 0
-1 -14 -23 -47 0
-1 -14 -28 -36 0
-1 -14 -28 -41 0
-1 -14 -28 -47 0
-1 -14 -36 -41 0
-1 -14 -36 -47 0
-1 -14 -41 -47 0
-1 -23 -28 -36 0
-1 -23 -28 -41 0
-1 -23 -28 -47 0
-1 -23 -36 -41 0
-1 -23 -36 -47 0
-1 -23 -41 -47 0
-1 -28 -36 -41 0
-1 -28 -36 -47 0
-1 -28 -41 -47 0
-1 -36 -41 -47 0
-12 -14 -23 -28 0
-12 -14 -23 -36 0
-12 -14 -23 -41 0
-12 -14 -23 -47 0
-12 -14 -28 -36 0
-12 -14 -28 -41 0
-12 -14 -28 -47 0
-12 -14 -36 -41 0
-12 -14 -36 -47 0
-12 -14 -41 -47 0
-12 -23 -28 -36 0
-12 -23 -28 -41 0
-12 -23 -28 -47 0
-12 -23 -36 -41 0
-12 -23 -36 -47 0
-12 -23 -41 -47 0
-12 -28 -36 -41 0
-12 -28 -36 -47 0
-12 -28 -41 -47 0
-12 -36 -41 -47 0
-14 -23 -28 -36 0
-14 -23 -28 -41 0
-14 -23 -28 -47 0
-14 -23 -36 -41 0
-14 -23 -36 -47 0
-14 -23 -41 -47 0
-14 -28 -36 -41 0
-14 -28 -36 -47 0
-14 -28 -41 -47 0
-14 -36 -41 -47 0
-23 -28 -36 -41 0
-23 -28 -36 -47 0
-23 -28 -41 -47 0
-23 -36 -41 -47 0
-28 -36 -41 -47 0
-2 -7 -15 -24 0
-2 -7 -15 -29 0
-2 -7 -15 -31 0
-2 -7 -15 -42 0
-2 -7 -15 -48 0
-2 -7 -24 -29 0
-2 -7 -24 -31 0
-2 -7 -24 -42 0
-2 -7 -24 -48 0
-2 -7 -29 -31 0
-2 -7 -29 -42 0
-2 -7 -29 -48 0
-2 -7 -31 -42 0
-2 -7 -31 -48 0
-2 -7 -42 -48 0
-2 -15 -24 -29 0
-2 -15 -24 -31 0
-2 -15 -24 -42 0
-2 -15 -24 -48 0
-2 -15 -29 -31 0
-2 -15 -29 -42 0
-2 -15 -29 -48 0
-2 -15 -31 -42 0
-2 -15 -31 -48 0
-2 -15 -42 -48 0
-2 -24 -29 -31 0
-2 -24 -29 -42 0
-2 -24 -29 -48 0
-2 -24 -31 -42 0
-2 -24 -31 -48 0
-2 -24 -42 -48 0
-2 -29 -31 -42 0
-2 -29 -31 -48 0
-2 -29 -42 -48 0
-2 -31 -42 -48 0
-7 -15 -24 -29 0
-7 -15 -24 -31 0
-7 -15 -24 -42 0
-7 -15 -24 -48 0
-7 -15 -29 -31 0
-7 -15 -29 -42 0
-7 -15 -29 -48 0
-7 -15 -31 -42 0
-7 -15 -31 -48 0
-7 -15 -42 -48 0
-7 -24 -29 -31 0
-7 -24 -29 -42 0
-7 -24 -29 -48 0
-7 -24 -31 -42 0
-7 -24 -31 -48 0
-7 -24 -42 -48 0
-7 -29 -31 -42 0
-7 -29 -31 -48 0
-7 -29 -42 -48 0
-7 -31 -42 -48 0
-15 -24 -29 -31 0
-15 -24 -29 -42 0
-15 -24 -29 -48 0
-15 -24 -31 -42 0
-15 -24 -31 -48 0
-15 -24 -42 -48 0
-15 -29 -31 -42 0
-15 -29 -31 -48 0
-15 -29 -42 -48 0
-15 -31 -42 -48 0
-24 -29 -31 -42 0
-24 -29 -31 -48 0
-24 -29 -42 -48 0
-24 -31 -42 -48 0
-29 -31 -42 -48 0
-3 -8 -16 -19 0
-3 -8 -16 -30 0
-3 -8 -16 -32 0
-3 -8 -16 -37 0
-3 -8 -16 -43 0
-3 -8 -19 -30 0
-3 -8 -19 -32 0
-3 -8 -19 -37 0
-3 -8 -19 -43 0
-3 -8 -30 -32 0
-3 -8 -30 -37 0
-3 -8 -30 -43 0
-3 -8 -32 -37 0
-3 -8 -32 -43 0
-3 -8 -37 -43 0
-3 -16 -19 -30 0
-3 -16 -19 -32 0
-3 -16 -19 -37 0
-3 -16 -19 -43 0
-3 -16 -30 -32 0
-3 -16 -30 -37 0
-3 -16 -30 -43 0
-3 -16 -32 -37 0
-3 -16 -32 -43 0
-3 -16 -37 -43 0
-3 -19 -30 -32 0
-3 -19 -30 -37 0
-3 -19 -30 -43 0
-3 -19 -32 -37 0
-3 -19 -32 -43 0
-3 -19 -37 -43 0
-3 -30 -32 -37 0
-3 -30 -32 -43 0
-3 -30 -37 -43 0
-3 -32 -37 -43 0
-8 -16 -19 -30 0
-8 -16 -19 -32 0
-8 -16 -19 -37 0
-8 -16 -19 -43 0
-8 -16 -30 -32 0
-8 -16 -30 -37 0
-8 -16 -30 -43 0
-8 -16 -32 -37 0
-8 -16 -32 -43 0
-8 -16 -37 -43 0
-8 -19 -30 -32 0
-8 -19 -30 -37 0
-8 -19 -30 -43 0
-8 -19 -32 -37 0
-8 -19 -32 -43 0
-8 -19 -37 -43 0
-8 -30 -32 -37 0
-8 -30 -32 -43 0
-8 -30 -37 -43 0
-8 -32 -37 -43 0
-16 -19 -30 -32 0
-16 -19 -30 -37 0
-16 -19 -30 -43 0
-16 -19 -32 -37 0
-16 -19 -32 -43 0
-16 -19 -37 -43 0
-16 -30 -32 -37 0
-16 -30 -32 -43 0
-16 -30 -37 -43 0
-16 -32 -37 -43 0
-19 -30 -32 -37 0
-19 -30 -32 -43 0
-19 -30 -37 -43 0
-19 -32 -37 -43 0
-30 -32 -37 -43 0
-4 -9 -17 -20 0
-4 -9 -17 -25 0
-4 -9 -17 -33 0
-4 -9 -17 -38 0
-4 -9 -17 -44 0
-4 -9 -20 -25 0
-4 -9 -20 -33 0
-4 -9 -20 -38 0
-4 -9 -20 -44 0
-4 -9 -25 -33 0
-4 -9 -25 -38 0
-4 -9 -25 -44 0
-4 -9 -33 -38 0
-4 -9 -33 -44 0
-4 -9 -38 -44 0
-4 -17 -20 -25 0
-4 -17 -20 -33 0
-4 -17 -20 -38 0
-4 -17 -20 -44 0
-4 -17 -25 -33 0
-4 -17 -25 -38 0
-4 -17 -25 -44 0
-4 -17 -33 -38 0
-4 -17 -33 -44 0
-4 -17 -38 -44 0
-4 -20 -25 -33 0
-4 -20 -25 -38 0
-4 -20 -25 -44 0
-4 -20 -33 -38 0
-4 -20 -33 -44 0
-4 -20 -38 -44 0
-4 -25 -33 -38 0
-4 -25 -33 -44 0
-4 -25 -38 -44 0
-4 -33 -38 -44 0
-9 -17 -20 -25 0
-9 -17 -20 -33 0
-9 -17 -20 -38 0
-9 -17 -20 -44 0
-9 -17 -25 -33 0
-9 -17 -25 -38 0
-9 -17 -25 -44 0
-9 -17 -33 -38 0
-9 -17 -33 -44 0
-9 -17 -38 -44 0
-9 -20 -25 -33 0
-9 -20 -25 -38 0
-9 -20 -25 -44 0
-9 -20 -33 -38 0
-9 -20 -33 -44 0
-9 -20 -38 -44 0
-9 -25 -33 -38 0
-9 -25 -33 -44 0
-9 -25 -38 -44 0
-9 -33 -38 -44 0
-17 -20 -25 -33 0
-17 -20 -25 -38 0
-17 -20 -25 -44 0
-17 -20 -33 -38 0
-17 -20 -33 -44 0
-17 -20 -38 -44 0
-17 -25 -33 -38 0
-17 -25 -33 -44 0
-17 -25 -38 -44 0
-17 -33 -38 -44 0
-20 -25 -33 -38 0
-20 -25 -33 -44 0
-20 -25 -38 -44 0
-20 -33 -38 -44 0
-25 -33 -38 -44 0
-5 -10 -18 -21 0
-5 -10 -18 -26 0
-5 -10 -18 -34 0
-5 -10 -18 -39 0
-5 -10 -18 -45 0
-5 -10 -21 -26 0
-5 -10 -21 -34 0
-5 -10 -21 -39 0
-5 -10 -21 -45 0
-5 -10 -26 -34 0
-5 -10 -26 -39 0
-5 -10 -26 -45 0
-5 -10 -34 -39 0
-5 -10 -34 -45 0
-5 -10 -39 -45 0
-5 -18 -21 -26 0
-5 -18 -21 -34 0
-5 -18 -21 -39 0
-5 -18 -21 -45 0
-5 -18 -26 -34 0
-5 -18 -26 -39 0
-5 -18 -26 -45 0
-5 -18 -34 -39 0
-5 -18 -34 -45 0
-5 -18 -39 -45 0
-5 -21 -26 -34 0
-5 -21 -26 -39 0
-5 -21 -26 -45 0
-5 -21 -34 -39 0
-5 -21 -34 -45 0
-5 -21 -39 -45 0
-5 -26 -34 -39 0
-5 -26 -34 -45 0
-5 -26 -39 -45 0
-5 -34 -39 -45 0
-10 -18 -21 -26 0
-10 -18 -21 -34 0
-10 -18 -21 -39 0
-10 -18 -21 -45 0
-10 -18 -26 -34 0
-10 -18 -26 -39 0
-10 -18 -26 -45 0
-10 -18 -34 -39 0
-10 -18 -34 -45 0
-10 -18 -39 -45 0
-10 -21 -26 -34 0
-10 -21 -26 -39 0
-10 -21 -26 -45 0
-10 -21 -34 -39 0
-10 -21 -34 -45 0
-10 -21 -39 -45 0
-10 -26 -34 -39 0
-10 -26 -34 -45 0
-10 -26 -39 -45 0
-10 -34 -39 -45 0
-18 -21 -26 -34 0
-18 -21 -26 -39 0
-18 -21 -26 -45 0
-18 -21 -34 -39 0
-18 -21 -34 -45 0
-18 -21 -39 -45 0
-18 -26 -34 -39 0
-18 -26 -34 -45 0
-18 -26 -39 -45 0
-18 -34 -39 -45 0
-21 -26 -34 -39 0
-21 -26 -34 -45 0
-21 -26 -39 -45 0
-21 -34 -39 -45 0
-26 -34 -39 -45 0
-6 -11 -13 -22 0
-6 -11 -13 -27 0
-6 -11 -13 -35 0
-6 -11 -13 -40 0
-6 -11 -13 -46 0
-6 -11 -22 -27 0
-6 -11 -22 -35 0
-6 -11 -22 -40 0
-6 -11 -22 -46 0
-6 -11 -27 -35 0
-6 -11 -27 -40 0
-6 -11 -27 -46 0
-6 -11 -35 -40 0
-6 -11 -35 -46 0
-6 -11 -40 -46 0
-6 -13 -22 -27 0
-6 -13 -22 -35 0
-6 -13 -22 -40 0
-6 -13 -22 -46 0
-6 -13 -27 -35 0
-6 -13 -27 -40 0
-6 -13 -27 -46 0
-6 -13 -35 -40 0
-6 -13 -35 -46 0
-6 -13 -40 -46 0
-6 -22 -27 -35 0
-6 -22 -27 -40 0
-6 -22 -27 -46 0
-6 -22 -35 -40 0
-6 -22 -35 -46 0
-6 -22 -40 -46 0
-6 -27 -35 -40 0
-6 -27 -35 -46 0
-6 -27 -40 -46 0
-6 -35 -40 -46 0
-11 -13 -22 -27 0
-11 -13 -22 -35 0
-11 -13 -22 -40 0
-11 -13 -22 -46 0
-11 -13 -27 -35 0
-11 -13 -27 -40 0
-11 -13 -27 -46 0
-11 -13 -35 -40 0
-11 -13 -35 -46 0
-11 -13 -40 -46 0
-11 -22 -27 -35 0
-11 -22 -27 -40 0
-11 -22 -27 -46 0
-11 -22 -35 -40 0
-11 -22 -35 -46 0
-11 -22 -40 -46 0
-11 -27 -35 -40 0
-11 -27 -35 -46 0
-11 -27 -40 -46 0
-11 -35 -40 -46 0
-13 -22 -27 -35 0
-13 -22 -27 -40 0
-13 -22 -27 -46 0
-13 -22 -35 -40 0
-13 -22 -35 -46 0
-13 -22 -40 -46 0
-13 -27 -35 -40 0
-13 -27 -35 -46 0
-13 -27 -40 -46 0
-13 -35 -40 -46 0
-22 -27 -35 -40 0
-22 -27 -35 -46 0
-22 -27 -40 -46 0
-22 -35 -40 -46 0
-27 -35 -40 -46 0
-1 -11 -16 -19 0
-1 -11 -16 -26 0
-1 -11 -16 -36 0
-1 -11 -16 -40 0
-1 -11 -16 -48 0
-1 -11 -19 -26 0
-1 -11 -19 -36 0
-1 -11 -19 -40 0
-1 -11 -19 -48 0
-1 -11 -26 -36 0
-1 -11 -26 -40 0
-1 -11 -26 -48 0
-1 -11 -36 -40 0
-1 -11 -36 -48 0
-1 -11 -40 -48 0
-1 -16 -19 -26 0
-1 -16 -19 -36 0
-1 -16 -19 -40 0
-1 -16 -19 -48 0
-1 -16 -26 -36 0
-1 -16 -26 -40 0
-1 -16 -26 -48 0
-1 -16 -36 -40 0
-1 -16 -36 -48 0
-1 -16 -40 -48 0
-1 -19 -26 -36 0
-1 -19 -26 -40 0
-1 -19 -26 -48 0
-1 -19 -36 -40 0
-1 -19 -36 -48 0
-1 -19 -40 -48 0
-1 -26 -36 -40 0
-1 -26 -36 -48 0
-1 -26 -40 -48 0
-1 -36 -40 -48 0
-11 -16 -19 -26 0
-11 -16 -19 -36 0
-11 -16 -19 -40 0
-11 -16 -19 -48 0
-11 -16 -26 -36 0
-11 -16 -26 -40 0
-11 -16 -26 -48 0
-11 -16 -36 -40 0
-11 -16 -36 -48 0
-11 -16 -40 -48 0
-11 -19 -26 -36 0
-11 -19 -26 -40 0
-11 -19 -26 -48 0
-11 -19 -36 -40 0
-11 -19 -36 -48 0
-11 -19 -40 -48 0
-11 -26 -36 -40 0
-11 -26 -36 -48 0
-11 -26 -40 -48 0
-11 -36 -40 -48 0
-16 -19 -26 -36 0
-16 -19 -26 -40 0
-16 -19 -26 -48 0
-16 -19 -36 -40 0
-16 -19 -36 -48 0
-16 -19 -40 -48 0
-16 -26 -36 -40 0
-16 -26 -36 -48 0
-16 -26 -40 -48 0
-16 -36 -40 -48 0
-19 -26 -36 -40 0
-19 -26 -36 -48 0
-19 -26 -40 -48 0
-19 -36 -40 -48 0
-26 -36 -40 -48 0
-2 -10 -17 -22 0
-2 -10 -17 -27 0
-2 -10 -17 -31 0
-2 -10 -17 -41 0
-2 -10 -17 -43 0
-2 -10 -22 -27 0
-2 -10 -22 -31 0
-2 -10 -22 -41 0
-2 -10 -22 -43 0
-2 -10 -27 -31 0
-2 -10 -27 -41 0
-2 -10 -27 -43 0
-2 -10 -31 -41 0
-2 -10 -31 -43 0
-2 -10 -41 -43 0
-2 -17 -22 -27 0
-2 -17 -22 -31 0
-2 -17 -22 -41 0
-2 -17 -22 -43 0
-2 -17 -27 -31 0
-2 -17 -27 -41 0
-2 -17 -27 -43 0
-2 -17 -31 -41 0
-2 -17 -31 -43 0
-2 -17 -41 -43 0
-2 -22 -27 -31 0
-2 -22 -27 -41 0
-2 -22 -27 -43 0
-2 -22 -31 -41 0
-2 -22 -31 -43 0
-2 -22 -41 -43 0
-2 -27 -31 -41 0
-2 -27 -31 -43 0
-2 -27 -41 -43 0
-2 -31 -41 -43 0
-10 -17 -22 -27 0
-10 -17 -22 -31 0
-10 -17 -22 -41 0
-10 -17 -22 -43 0
-10 -17 -27 -31 0
-10 -17 -27 -41 0
-10 -17 -27 -43 0
-10 -17 -31 -41 0
-10 -17 -31 -43 0
-10 -17 -41 -43 0
-10 -22 -27 -31 0
-10 -22 -27 -41 0
-10 -22 -27 -43 0
-10 -22 -31 -41 0
-10 -22 -31 -43 0
-10 -22 -41 -43 0
-10 -27 -31 -41 0
-10 -27 -31 -43 0
-10 -27 -41 -43 0
-10 -31 -41 -43 0
-17 -22 -27 -31 0
-17 -22 -27 -41 0
-17 -22 -27 -43 0
-17 -22 -31 -41 0
-17 -22 -31 -43 0
-17 -22 -41 -43 0
-17 -27 -31 -41 0
-17 -27 -31 -43 0
-17 -27 -41 -43 0
-17 -31 -41 -43 0
-22 -27 -31 -41 0
-22 -27 -31 -43 0
-22 -27 -41 -43 0
-22 -31 -41 -43 0
-27 -31 -41 -43 0
-3 -7 -18 -23 0
-3 -7 -18 -28 0
-3 -7 -18 -32 0
-3 -7 -18 -42 0
-3 -7 -18 -44 0
-3 -7 -23 -28 0
-3 -7 -23 -32 0
-3 -7 -23 -42 0
-3 -7 -23 -44 0
-3 -7 -28 -32 0
-3 -7 -28 -42 0
-3 -7 -28 -44 0
-3 -7 -32 -42 0
-3 -7 -32 -44 0
-3 -7 -42 -44 0
-3 -18 -23 -28 0
-3 -18 -23 -32 0
-3 -18 -23 -42 0
-3 -18 -23 -44 0
-3 -18 -28 -32 0
-3 -18 -28 -42 0
-3 -18 -28 -44 0
-3 -18 -32 -42 0
-3 -18 -32 -44 0
-3 -18 -42 -44 0
-3 -23 -28 -32 0
-3 -23 -28 -42 0
-3 -23 -28 -44 0
-3 -23 -32 -42 0
-3 -23 -32 -44 0
-3 -23 -42 -44 0
-3 -28 -32 -42 0
-3 -28 -32 -44 0
-3 -28 -42 -44 0
-3 -32 -42 -44 0
-7 -18 -23 -28 0
-7 -18 -23 -32 0
-7 -18 -23 -42 0
-7 -18 -23 -44 0
-7 -18 -28 -32 0
-7 -18 -28 -42 0
-7 -18 -28 -44 0
-7 -18 -32 -42 0
-7 -18 -32 -44 0
-7 -18 -42 -44 0
-7 -23 -28 -32 0
-7 -23 -28 -42 0
-7 -23 -28 -44 0
-7 -23 -32 -42 0
-7 -23 -32 -44 0
-7 -23 -42 -44 0
-7 -28 -32 -42 0
-7 -28 -32 -44 0
-7 -28 -42 -44 0
-7 -32 -42 -44 0
-18 -23 -28 -32 0
-18 -23 -28 -42 0
-18 -23 -28 -44 0
-18 -23 -32 -42 0
-18 -23 -32 -44 0
-18 -23 -42 -44 0
-18 -28 -32 -42 0
-18 -28 -32 -44 0
-18 -28 -42 -44 0
-18 -32 -42 -44 0
-23 -28 -32 -42 0
-23 -28 -32 -44 0
-23 -28 -42 -44 0
-23 -32 -42 -44 0
-28 -32 -42 -44 0
-4 -8 -13 -24 0
-4 -8 -13 -29 0
-4 -8 -13 -33 0
-4 -8 -13 -37 0
-4 -8 -13 -45 0
-4 -8 -24 -29 0
-4 -8 -24 -33 0
-4 -8 -24 -37 0
-4 -8 -24 -45 0
-4 -8 -29 -33 0
-4 -8 -29 -37 0
-4 -8 -29 -45 0
-4 -8 -33 -37 0
-4 -8 -33 -45 0
-4 -8 -37 -45 0
-4 -13 -24 -29 0
-4 -13 -24 -33 0
-4 -13 -24 -37 0
-4 -13 -24 -45 0
-4 -13 -29 -33 0
-4 -13 -29 -37 0
-4 -13 -29 -45 0
-4 -13 -33 -37 0
-4 -13 -33 -45 0
-4 -13 -37 -45 0
-4 -24 -29 -33 0
-4 -24 -29 -37 0
-4 -24 -29 -45 0
-4 -24 -33 -37 0
-4 -24 -33 -45 0
-4 -24 -37 -45 0
-4 -29 -33 -37 0
-4 -29 -33 -45 0
-4 -29 -37 -45 0
-4 -33 -37 -45 0
-8 -13 -24 -29 0
-8 -13 -24 -33 0
-8 -13 -24 -37 0
-8 -13 -24 -45 0
-8 -13 -29 -33 0
-8 -13 -29 -37 0
-8 -13 -29 -45 0
-8 -13 -33 -37 0
-8 -13 -33 -45 0
-8 -13 -37 -45 0
-8 -24 -29 -33 0
-8 -24 -29 -37 0
-8 -24 -29 -45 0
-8 -24 -33 -37 0
-8 -24 -33 -45 0
-8 -24 -37 -45 0
-8 -29 -33 -37 0
-8 -29 -33 -45 0
-8 -29 -37 -45 0
-8 -33 -37 -45 0
-13 -24 -29 -33 0
-13 -24 -29 -37 0
-13 -24 -29 -45 0
-13 -24 -33 -37 0
-13 -24 -33 -45 0
-13 -24 -37 -45 0
-13 -29 -33 -37 0
-13 -29 -33 -45 0
-13 -29 -37 -45 0
-13 -33 -37 -45 0
-24 -29 -33 -37 0
-24 -29 -33 -45 0
-24 -29 -37 -45 0
-24 -33 -37 -45 0
-29 -33 -37 -45 0
-5 -9 -14 -19 0
-5 -9 -14 -30 0
-5 -9 -14 -34 0
-5 -9 -14 -38 0
-5 -9 -14 -46 0
-5 -9 -19 -30 0
-5 -9 -19 -34 0
-5 -9 -19 -38 0
-5 -9 -19 -46 0
-5 -9 -30 -34 0
-5 -9 -30 -38 0
-5 -9 -30 -46 0
-5 -9 -34 -38 0
-5 -9 -34 -46 0
-5 -9 -38 -46 0
-5 -14 -19 -30 0
-5 -14 -19 -34 0
-5 -14 -19 -38 0
-5 -14 -19 -46 0
-5 -14 -30 -34 0
-5 -14 -30 -38 0
-5 -14 -30 -46 0
-5 -14 -34 -38 0
-5 -14 -34 -46 0
-5 -14 -38 -46 0
-5 -19 -30 -34 0
-5 -19 -30 -38 0
-5 -19 -30 -46 0
-5 -19 -34 -38 0
-5 -19 -34 -46 0
-5 -19 -38 -46 0
-5 -30 -34 -38 0
-5 -30 -34 -46 0
-5 -30 -38 -46 0
-5 -34 -38 -46 0
-9 -14 -19 -30 0
-9 -14 -19 -34 0
-9 -14 -19 -38 0
-9 -14 -19 -46 0
-9 -14 -30 -34 0
-9 -14 -30 -38 0
-9 -14 -30 -46 0
-9 -14 -34 -38 0
-9 -14 -34 -46 0
-9 -14 -38 -46 0
-9 -19 -30 -34 0
-9 -19 -30 -38 0
-9 -19 -30 -46 0
-9 -19 -34 -38 0
-9 -19 -34 -46 0
-9 -19 -38 -46 0
-9 -30 -34 -38 0
-9 -30 -34 -46 0
-9 -30 -38 -46 0
-9 -34 -38 -46 0
-14 -19 -30 -34 0
-14 -19 -30 -38 0
-14 -19 -30 -46 0
-14 -19 -34 -38 0
-14 -19 -34 -46 0
-14 -19 -38 -46 0
-14 -30 -34 -38 0
-14 -30 -34 -46 0
-14 -30 -38 -46 0
-14 -34 -38 -46 0
-19 -30 -34 -38 0
-19 -30 -34 -46 0
-19 -30 -38 -46 0
-19 -34 -38 -46 0
-30 -34 -38 -46 0
-6 -10 -15 -20 0
-6 -10 -15 -25 0
-6 -10 -15 -35 0
-6 -10 -15 -40 0
-6 -10 -15 -47 0
-6 -10 -20 -25 0
-6 -10 -20 -35 0
-6 -10 -20 -40 0
-6 -10 -20 -47 0
-6 -10 -25 -35 0
-6 -10 -25 -40 0
-6 -10 -25 -47 0
-6 -10 -35 -40 0
-6 -10 -35 -47 0
-6 -10 -40 -47 0
-6 -15 -20 -25 0
-6 -15 -20 -35 0
-6 -15 -20 -40 0
-6 -15 -20 -47 0
-6 -15 -25 -35 0
-6 -15 -25 -40 0
-6 -15 -25 -47 0
-6 -15 -35 -40 0
-6 -15 -35 -47 0
-6 -15 -40 -47 0
-6 -20 -25 -35 0
-6 -20 -25 -40 0
-6 -20 -25 -47 0
-6 -20 -35 -40 0
-6 -20 -35 -47 0
-6 -20 -40 -47 0
-6 -25 -35 -40 0
-6 -25 -35 -47 0
-6 -25 -40 -47 0
-6 -35 -40 -47 0
-10 -15 -20 -25 0
-10 -15 -20 -35 0
-10 -15 -20 -40 0
-10 -15 -20 -47 0
-10 -15 -25 -35 0
-10 -15 -25 -40 0
-10 -15 -25 -47 0
-10 -15 -35 -40 0
-10 -15 -35 -47 0
-10 -15 -40 -47 0
-10 -20 -25 -35 0
-10 -20 -25 -40 0
-10 -20 -25 -47 0
-10 -20 -35 -40 0
-10 -20 -35 -47 0
-10 -20 -40 -47 0
-10 -25 -35 -40 0
-10 -25 -35 -47 0
-10 -25 -40 -47 0
-10 -35 -40 -47 0
-15 -20 -25 -35 0
-15 -20 -25 -40 0
-15 -20 -25 -47 0
-15 -20 -35 -40 0
-15 -20 -35 -47 0
-15 -20 -40 -47 0
-15 -25 -35 -40 0
-15 -25 -35 -47 0
-15 -25 -40 -47 0
-15 -35 -40 -47 0
-20 -25 -35 -40 0
-20 -25 -35 -47 0
-20 -25 -40 -47 0
-20 -35 -40 -47 0
-25 -35 -40 -47 0
-1 -11 -13 -23 0
-1 -11 -13 -28 0
-1 -11 -13 -33 0
-1 -11 -13 -41 0
-1 -11 -13 -43 0
-1 -11 -23 -28 0
-1 -11 -23 -33 0
-1 -11 -23 -41 0
-1 -11 -23 -43 0
-1 -11 -28 -33 0
-1 -11 -28 -41 0
-1 -11 -28 -43 0
-1 -11 -33 -41 0
-1 -11 -33 -43 0
-1 -11 -41 -43 0
-1 -13 -23 -28 0
-1 -13 -23 -33 0
-1 -13 -23 -41 0
-1 -13 -23 -43 0
-1 -13 -28 -33 0
-1 -13 -28 -41 0
-1 -13 -28 -43 0
-1 -13 -33 -41 0
-1 -13 -33 -43 0
-1 -13 -41 -43 0
-1 -23 -28 -33 0
-1 -23 -28 -41 0
-1 -23 -28 -43 0
-1 -23 -33 -41 0
-1 -23 -33 -43 0
-1 -23 -41 -43 0
-1 -28 -33 -41 0
-1 -28 -33 -43 0
-1 -28 -41 -43 0
-1 -33 -41 -43 0
-11 -13 -23 -28 0
-11 -13 -23 -33 0
-11 -13 -23 -41 0
-11 -13 -23 -43 0
-11 -13 -28 -33 0
-11 -13 -28 -41 0
-11 -13 -28 -43 0
-11 -13 -33 -41 0
-11 -13 -33 -43 0
-11 -13 -41 -43 0
-11 -23 -28 -33 0
-11 -23 -28 -41 0
-11 -23 -28 -43 0
-11 -23 -33 -41 0
-11 -23 -33 -43 0
-11 -23 -41 -43 0
-11 -28 -33 -41 0
-11 -28 -33 -43 0
-11 -28 -41 -43 0
-11 -33 -41 -43 0
-13 -23 -28 -33 0
-13 -23 -28 -41 0
-13 -23 -28 -43 0
-13 -23 -33 -41 0
-13 -23 -33 -43 0
-13 -23 -41 -43 0
-13 -28 -33 -41 0
-13 -28 -33 -43 0
-13 -28 -41 -43 0
-13 -33 -41 -43 0
-23 -28 -33 -41 0
-23 -28 -33 -43 0
-23 -28 -41 -43 0
-23 -33 -41 -43 0
-28 -33 -41 -43 0
-2 -12 -14 -24 0
-2 -12 -14 -29 0
-2 -12 -14 -34 0
-2 -12 -14 -42 0
-2 -12 -14 -44 0
-2 -12 -24 -29 0
-2 -12 -24 -34 0
-2 -12 -24 -42 0
-2 -12 -24 -44 0
-2 -12 -29 -34 0
-2 -12 -29 -42 0
-2 -12 -29 -44 0
-2 -12 -34 -42 0
-2 -12 -34 -44 0
-2 -12 -42 -44 0
-2 -14 -24 -29 0
-2 -14 -24 -34 0
-2 -14 -24 -42 0
-2 -14 -24 -44 0
-2 -14 -29 -34 0
-2 -14 -29 -42 0
-2 -14 -29 -44 0
-2 -14 -34 -42 0
-2 -14 -34 -44 0
-2 -14 -42 -44 0
-2 -24 -29 -34 0
-2 -24 -29 -42 0
-2 -24 -29 -44 0
-2 -24 -34 -42 0
-2 -24 -34 -44 0
-2 -24 -42 -44 0
-2 -29 -34 -42 0
-2 -29 -34 -44 0
-2 -29 -42 -44 0
-2 -34 -42 -44 0
-12 -14 -24 -29 0
-12 -14 -24 -34 0
-12 -14 -24 -42 0
-12 -14 -24 -44 0
-12 -14 -29 -34 0
-12 -14 -29 -42 0
-12 -14 -29 -44 0
-12 -14 -34 -42 0
-12 -14 -34 -44 0
-12 -14 -42 -44 0
-12 -24 -29 -34 0
-12 -24 -29 -42 0
-12 -24 -29 -44 0
-12 -24 -34 -42 0
-12 -24 -34 -44 0
-12 -24 -42 -44 0
-12 -29 -34 -42 0
-12 -29 -34 -44 0
-12 -29 -42 -44 0
-12 -34 -42 -44 0
-14 -24 -29 -34 0
-14 -24 -29 -42 0
-14 -24 -29 -44 0
-14 -24 -34 -42 0
-14 -24 -34 -44 0
-14 -24 -42 -44 0
-14 -29 -34 -42 0
-14 -29 -34 -44 0
-14 -29 -42 -44 0
-14 -34 -42 -44 0
-24 -29 -34 -42 0
-24 -29 -34 -44 0
-24 -29 -42 -44 0
-24 -34 -42 -44 0
-29 -34 -42 -44 0
-3 -7 -15 -19 0
-3 -7 -15 -30 0
-3 -7 -15 -35 0
-3 -7 -15 -37 0
-3 -7 -15 -45 0
-3 -7 -19 -30 0
-3 -7 -19 -35 0
-3 -7 -19 -37 0
-3 -7 -19 -45 0
-3 -7 -30 -35 0
-3 -7 -30 -37 0
-3 -7 -30 -45 0
-3 -7 -35 -37 0
-3 -7 -35 -45 0
-3 -7 -37 -45 0
-3 -15 -19 -30 0
-3 -15 -19 -35 0
-3 -15 -19 -37 0
-3 -15 -19 -45 0
-3 -15 -30 -35 0
-3 -15 -30 -37 0
-3 -15 -30 -45 0
-3 -15 -35 -37 0
-3 -15 -35 -45 0
-3 -15 -37 -45 0
-3 -19 -30 -35 0
-3 -19 -30 -37 0
-3 -19 -30 -45 0
-3 -19 -35 -37 0
-3 -19 -35 -45 0
-3 -19 -37 -45 0
-3 -30 -35 -37 0
-3 -30 -35 -45 0
-3 -30 -37 -45 0
-3 -35 -37 -45 0
-7 -15 -19 -30 0
-7 -15 -19 -35 0
-7 -15 -19 -37 0
-7 -15 -19 -45 0
-7 -15 -30 -35 0
-7 -15 -30 -37 0
-7 -15 -30 -45 0
-7 -15 -35 -37 0
-7 -15 -35 -45 0
-7 -15 -37 -45 0
-7 -19 -30 -35 0
-7 -19 -30 -37 0
-7 -19 -30 -45 0
-7 -19 -35 -37 0
-7 -19 -35 -45 0
-7 -19 -37 -45 0
-7 -30 -35 -37 0
-7 -30 -35 -45 0
-7 -30 -37 -45 0
-7 -35 -37 -45 0
-15 -19 -30 -35 0
-15 -19 -30 -37 0
-15 -19 -30 -45 0
-15 -19 -35 -37 0
-15 -19 -35 -45 0
-15 -19 -37 -45 0
-15 -30 -35 -37 0
-15 -30 -35 -45 0
-15 -30 -37 -45 0
-15 -35 -37 -45 0
-19 -30 -35 -37 0
-19 -30 -35 -45 0
-19 -30 -37 -45 0
-19 -35 -37 -45 0
-30 -35 -37 -45 0
-4 -8 -16 -20 0
-4 -8 -16 -25 0
-4 -8 -16 -36 0
-4 -8 -16 -38 0
-4 -8 -16 -46 0
-4 -8 -20 -25 0
-4 -8 -20 -36 0
-4 -8 -20 -38 0
-4 -8 -20 -46 0
-4 -8 -25 -36 0
-4 -8 -25 -38 0
-4 -8 -25 -46 0
-4 -8 -36 -38 0
-4 -8 -36 -46 0
-4 -8 -38 -46 0
-4 -16 -20 -25 0
-4 -16 -20 -36 0
-4 -16 -20 -38 0
-4 -16 -20 -46 0
-4 -16 -25 -36 0
-4 -16 -25 -38 0
-4 -16 -25 -46 0
-4 -16 -36 -38 0
-4 -16 -36 -46 0
-4 -16 -38 -46 0
-4 -20 -25 -36 0
-4 -20 -25 -38 0
-4 -20 -25 -46 0
-4 -20 -36 -38 0
-4 -20 -36 -46 0
-4 -20 -38 -46 0
-4 -25 -36 -38 0
-4 -25 -36 -46 0
-4 -25 -38 -46 0
-4 -36 -38 -46 0
-8 -16 -20 -25 0
-8 -16 -20 -36 0
-8 -16 -20 -38 0
-8 -16 -20 -46 0
-8 -16 -25 -36 0
-8 -16 -25 -38 0
-8 -16 -25 -46 0
-8 -16 -36 -38 0
-8 -16 -36 -46 0
-8 -16 -38 -46 0
-8 -20 -25 -36 0
-8 -20 -25 -38 0
-8 -20 -25 -46 0
-8 -20 -36 -38 0
-8 -20 -36 -46 0
-8 -20 -38 -46 0
-8 -25 -36 -38 0
-8 -25 -36 -46 0
-8 -25 -38 -46 0
-8 -36 -38 -46 0
-16 -20 -25 -36 0
-16 -20 -25 -38 0
-16 -20 -25 -46 0
-16 -20 -36 -38 0
-16 -20 -36 -46 0
-16 -20 -38 -46 0
-16 -25 -36 -38 0
-16 -25 -36 -46 0
-16 -25 -38 -46 0
-16 -36 -38 -46 0
-20 -25 -36 -38 0
-20 -25 -36 -46 0
-20 -25 -38 -46 0
-20 -36 -38 -46 0
-25 -36 -38 -46 0
-5 -9 -17 -21 0
-5 -9 -17 -26 0
-5 -9 -17 -31 0
-5 -9 -17 -39 0
-5 -9 -17 -47 0
-5 -9 -21 -26 0
-5 -9 -21 -31 0
-5 -9 -21 -39 0
-5 -9 -21 -47 0
-5 -9 -26 -31 0
-5 -9 -26 -39 0
-5 -9 -26 -47 0
-5 -9 -31 -39 0
-5 -9 -31 -47 0
-5 -9 -39 -47 0
-5 -17 -21 -26 0
-5 -17 -21 -31 0
-5 -17 -21 -39 0
-5 -17 -21 -47 0
-5 -17 -26 -31 0
-5 -17 -26 -39 0
-5 -17 -26 -47 0
-5 -17 -31 -39 0
-5 -17 -31 -47 0
-5 -17 -39 -47 0
-5 -21 -26 -31 0
-5 -21 -26 -39 0
-5 -21 -26 -47 0
-5 -21 -31 -39 0
-5 -21 -31 -47 0
-5 -21 -39 -47 0
-5 -26 -31 -39 0
-5 -26 -31 -47 0
-5 -26 -39 -47 0
-5 -31 -39 -47 0
-9 -17 -21 -26 0
-9 -17 -21 -31 0
-9 -17 -21 -39 0
-9 -17 -21 -47 0
-9 -17 -26 -31 0
-9 -17 -26 -39 0
-9 -17 -26 -47 0
-9 -17 -31 -39 0
-9 -17 -31 -47 0
-9 -17 -39 -47 0
-9 -21 -26 -31 0
-9 -21 -26 -39 0
-9 -21 -26 -47 0
-9 -21 -31 -39 0
-9 -21 -31 -47 0
-9 -21 -39 -47 0
-9 -26 -31 -39 0
-9 -26 -31 -47 0
-9 -26 -39 -47 0
-9 -31 -39 -47 0
-17 -21 -26 -31 0
-17 -21 -26 -39 0
-17 -21 -26 -47 0
-17 -21 -31 -39 0
-17 -21 -31 -47 0
-17 -21 -39 -47 0
-17 -26 -31 -39 0
-17 -26 -31 -47 0
-17 -26 -39 -47 0
-17 -31 -39 -47 0
-21 -26 -31 -39 0
-21 -26 -31 -47 0
-21 -26 -39 -47 0
-21 -31 -39 -47 0
-26 -31 -39 -47 0
-6 -10 -18 -22 0
-6 -10 -18 -27 0
-6 -10 -18 -32 0
-6 -10 -18 -40 0
-6 -10 -18 -48 0
-6 -10 -22 -27 0
-6 -10 -22 -32 0
-6 -10 -22 -40 0
-6 -10 -22 -48 0
-6 -10 -27 -32 0
-6 -10 -27 -40 0
-6 -10 -27 -48 0
-6 -10 -32 -40 0
-6 -10 -32 -48 0
-6 -10 -40 -48 0
-6 -18 -22 -27 0
-6 -18 -22 -32 0
-6 -18 -22 -40 0
-6 -18 -22 -48 0
-6 -18 -27 -32 0
-6 -18 -27 -40 0
-6 -18 -27 -48 0
-6 -18 -32 -40 0
-6 -18 -32 -48 0
-6 -18 -40 -48 0
-6 -22 -27 -32 0
-6 -22 -27 -40 0
-6 -22 -27 -48 0
-6 -22 -32 -40 0
-6 -22 -32 -48 0
-6 -22 -40 -48 0
-6 -27 -32 -40 0
-6 -27 -32 -48 0
-6 -27 -40 -48 0
-6 -32 -40 -48 0
-10 -18 -22 -27 0
-10 -18 -22 -32 0
-10 -18 -22 -40 0
-10 -18 -22 -48 0
-10 -18 -27 -32 0
-10 -18 -27 -40 0
-10 -18 -27 -48 0
-10 -18 -32 -40 0
-10 -18 -32 -48 0
-10 -18 -40 -48 0
-10 -22 -27 -32 0
-10 -22 -27 -40 0
-10 -22 -27 -48 0
-10 -22 -32 -40 0
-10 -22 -32 -48 0
-10 -22 -40 -48 0
-10 -27 -32 -40 0
-10 -27 -32 -48 0
-10 -27 -40 -48 0
-10 -32 -40 -48 0
-18 -22 -27 -32 0
-18 -22 -27 -40 0
-18 -22 -27 -48 0
-18 -22 -32 -40 0
-18 -22 -32 -48 0
-18 -22 -40 -48 0
-18 -27 -32 -40 0
-18 -27 -32 -48 0
-18 -27 -40 -48 0
-18 -32 -40 -48 0
-22 -27 -32 -40 0
-22 -27 -32 -48 0
-22 -27 -40 -48 0
-22 -32 -40 -48 0
-27 -32 -40 -48 0
-1 -12 -14 -20 0
-1 -12 -14 -26 0
-1 -12 -14 -32 0
-1 -12 -14 -40 0
-1 -12 -14 -46 0
-1 -12 -20 -26 0
-1 -12 -20 -32 0
-1 -12 -20 -40 0
-1 -12 -20 -46 0
-1 -12 -26 -32 0
-1 -12 -26 -40 0
-1 -12 -26 -46 0
-1 -12 -32 -40 0
-1 -12 -32 -46 0
-1 -12 -40 -46 0
-1 -14 -20 -26 0
-1 -14 -20 -32 0
-1 -14 -20 -40 0
-1 -14 -20 -46 0
-1 -14 -26 -32 0
-1 -14 -26 -40 0
-1 -14 -26 -46 0
-1 -14 -32 -40 0
-1 -14 -32 -46 0
-1 -14 -40 -46 0
-1 -20 -26 -32 0
-1 -20 -26 -40 0
-1 -20 -26 -46 0
-1 -20 -32 -40 0
-1 -20 -32 -46 0
-1 -20 -40 -46 0
-1 -26 -32 -40 0
-1 -26 -32 -46 0
-1 -26 -40 -46 0
-1 -32 -40 -46 0
-12 -14 -20 -26 0
-12 -14 -20 -32 0
-12 -14 -20 -40 0
-12 -14 -20 -46 0
-12 -14 -26 -32 0
-12 -14 -26 -40 0
-12 -14 -26 -46 0
-12 -14 -32 -40 0
-12 -14 -32 -46 0
-12 -14 -40 -46 0
-12 -20 -26 -32 0
-12 -20 -26 -40 0
-12 -20 -26 -46 0
-12 -20 -32 -40 0
-12 -20 -32 -46 0
-12 -20 -40 -46 0
-12 -26 -32 -40 0
-12 -26 -32 -46 0
-12 -26 -40 -46 0
-12 -32 -40 -46 0
-14 -20 -26 -32 0
-14 -20 -26 -40 0
-14 -20 -26 -46 0
-14 -20 -32 -40 0
-14 -20 -32 -46 0
-14 -20 -40 -46 0
-14 -26 -32 -40 0
-14 -26 -32 -46 0
-14 -26 -40 -46 0
-14 -32 -40 -46 0
-20 -26 -32 -40 0
-20 -26 -32 -46 0
-20 -26 -40 -46 0
-20 -32 -40 -46 0
-26 -32 -40 -46 0
-2 -7 -15 -21 0
-2 -7 -15 -27 0
-2 -7 -15 -33 0
-2 -7 -15 -41 0
-2 -7 -15 -47 0
-2 -7 -21 -27 0
-2 -7 -21 -33 0
-2 -7 -21 -41 0
-2 -7 -21 -47 0
-2 -7 -27 -33 0
-2 -7 -27 -41 0
-2 -7 -27 -47 0
-2 -7 -33 -41 0
-2 -7 -33 -47 0
-2 -7 -41 -47 0
-2 -15 -21 -27 0
-2 -15 -21 -33 0
-2 -15 -21 -41 0
-2 -15 -21 -47 0
-2 -15 -27 -33 0
-2 -15 -27 -41 0
-2 -15 -27 -47 0
-2 -15 -33 -41 0
-2 -15 -33 -47 0
-2 -15 -41 -47 0
-2 -21 -27 -33 0
-2 -21 -27 -41 0
-2 -21 -27 -47 0
-2 -21 -33 -41 0
-2 -21 -33 -47 0
-2 -21 -41 -47 0
-2 -27 -33 -41 0
-2 -27 -33 -47 0
-2 -27 -41 -47 0
-2 -33 -41 -47 0
-7 -15 -21 -27 0
-7 -15 -21 -33 0
-7 -15 -21 -41 0
-7 -15 -21 -47 0
-7 -15 -27 -33 0
-7 -15 -27 -41 0
-7 -15 -27 -47 0
-7 -15 -33 -41 0
-7 -15 -33 -47 0
-7 -15 -41 -47 0
-7 -21 -27 -33 0
-7 -21 -27 -41 0
-7 -21 -27 -47 0
-7 -21 -33 -41 0
-7 -21 -33 -47 0
-7 -21 -41 -47 0
-7 -27 -33 -41 0
-7 -27 -33 -47 0
-7 -27 -41 -47 0
-7 -33 -41 -47 0
-15 -21 -27 -33 0
-15 -21 -27 -41 0
-15 -21 -27 -47 0
-15 -21 -33 -41 0
-15 -21 -33 -47 0
-15 -21 -41 -47 0
-15 -27 -33 -41 0
-15 -27 -33 -47 0
-15 -27 -41 -47 0
-15 -33 -41 -47 0
-21 -27 -33 -41 0
-21 -27 -33 -47 0
-21 -27 -41 -47 0
-21 -33 -41 -47 0
-27 -33 -41 -47 0
-3 -8 -16 -22 0
-3 -8 -16 -28 0
-3 -8 -16 -34 0
-3 -8 -16 -42 0
-3 -8 -16 -48 0
-3 -8 -22 -28 0
-3 -8 -22 -34 0
-3 -8 -22 -42 0
-3 -8 -22 -48 0
-3 -8 -28 -34 0
-3 -8 -28 -42 0
-3 -8 -28 -48 0
-3 -8 -34 -42 0
-3 -8 -34 -48 0
-3 -8 -42 -48 0
-3 -16 -22 -28 0
-3 -16 -22 -34 0
-3 -16 -22 -42 0
-3 -16 -22 -48 0
-3 -16 -28 -34 0
-3 -16 -28 -42 0
-3 -16 -28 -48 0
-3 -16 -34 -42 0
-3 -16 -34 -48 0
-3 -16 -42 -48 0
-3 -22 -28 -34 0
-3 -22 -28 -42 0
-3 -22 -28 -48 0
-3 -22 -34 -42 0
-3 -22 -34 -48 0
-3 -22 -42 -48 0
-3 -28 -34 -42 0
-3 -28 -34 -48 0
-3 -28 -42 -48 0
-3 -34 -42 -48 0
-8 -16 -22 -28 0
-8 -16 -22 -34 0
-8 -16 -22 -42 0
-8 -16 -22 -48 0
-8 -16 -28 -34 0
-8 -16 -28 -42 0
-8 -16 -28 -48 0
-8 -16 -34 -42 0
-8 -16 -34 -48 0
-8 -16 -42 -48 0
-8 -22 -28 -34 0
-8 -22 -28 -42 0
-8 -22 -28 -48 0
-8 -22 -34 -42 0
-8 -22 -34 -48 0
-8 -22 -42 -48 0
-8 -28 -34 -42 0
-8 -28 -34 -48 0
-8 -28 -42 -48 0
-8 -34 -42 -48 0
-16 -22 -28 -34 0
-16 -22 -28 -42 0
-16 -22 -28 -48 0
-16 -22 -34 -42 0
-16 -22 -34 -48 0
-16 -22 -42 -48 0
-16 -28 -34 -42 0
-16 -28 -34 -48 0
-16 -28 -42 -48 0
-16 -34 -42 -48 0
-22 -28 -34 -42 0
-22 -28 -34 -48 0
-22 -28 -42 -48 0
-22 -34 -42 -48 0
-28 -34 -42 -48 0
-4 -9 -17 -23 0
-4 -9 -17 -29 0
-4 -9 -17 -35 0
-4 -9 -17 -37 0
-4 -9 -17 -43 0
-4 -9 -23 -29 0
-4 -9 -23 -35 0
-4 -9 -23 -37 0
-4 -9 -23 -43 0
-4 -9 -29 -35 0
-4 -9 -29 -37 0
-4 -9 -29 -43 0
-4 -9 -35 -37 0
-4 -9 -35 -43 0
-4 -9 -37 -43 0
-4 -17 -23 -29 0
-4 -17 -23 -35 0
-4 -17 -23 -37 0
-4 -17 -23 -43 0
-4 -17 -29 -35 0
-4 -17 -29 -37 0
-4 -17 -29 -43 0
-4 -17 -35 -37 0
-4 -17 -35 -43 0
-4 -17 -37 -43 0
-4 -23 -29 -35 0
-4 -23 -29 -37 0
-4 -23 -29 -43 0
-4 -23 -35 -37 0
-4 -23 -35 -43 0
-4 -23 -37 -43 0
-4 -29 -35 -37 0
-4 -29 -35 -43 0
-4 -29 -37 -43 0
-4 -35 -37 -43 0
-9 -17 -23 -29 0
-9 -17 -23 -35 0
-9 -17 -23 -37 0
-9 -17 -23 -43 0
-9 -17 -29 -35 0
-9 -17 -29 -37 0
-9 -17 -29 -43 0
-9 -17 -35 -37 0
-9 -17 -35 -43 0
-9 -17 -37 -43 0
-9 -23 -29 -35 0
-9 -23 -29 -37 0
-9 -23 -29 -43 0
-9 -23 -35 -37 0
-9 -23 -35 -43 0
-9 -23 -37 -43 0
-9 -29 -35 -37 0
-9 -29 -35 -43 0
-9 -29 -37 -43 0
-9 -35 -37 -43 0
-17 -23 -29 -35 0
-17 -23 -29 -37 0
-17 -23 -29 -43 0
-17 -23 -35 -37 0
-17 -23 -35 -43 0
-17 -23 -37 -43 0
-17 -29 -35 -37 0
-17 -29 -35 -43 0
-17 -29 -37 -43 0
-17 -35 -37 -43 0
-23 -29 -35 -37 0
-23 -29 -35 -43 0
-23 -29 -37 -43 0
-23 -35 -37 -43 0
-29 -35 -37 -43 0
-5 -10 -18 -24 0
-5 -10 -18 -30 0
-5 -10 -18 -36 0
-5 -10 -18 -38 0
-5 -10 -18 -44 0
-5 -10 -24 -30 0
-5 -10 -24 -36 0
-5 -10 -24 -38 0
-5 -10 -24 -44 0
-5 -10 -30 -36 0
-5 -10 -30 -38 0
-5 -10 -30 -44 0
-5 -10 -36 -38 0
-5 -10 -36 -44 0
-5 -10 -38 -44 0
-5 -18 -24 -30 0
-5 -18 -24 -36 0
-5 -18 -24 -38 0
-5 -18 -24 -44 0
-5 -18 -30 -36 0
-5 -18 -30 -38 0
-5 -18 -30 -44 0
-5 -18 -36 -38 0
-5 -18 -36 -44 0
-5 -18 -38 -44 0
-5 -24 -30 -36 0
-5 -24 -30 -38 0
-5 -24 -30 -44 0
-5 -24 -36 -38 0
-5 -24 -36 -44 0
-5 -24 -38 -44 0
-5 -30 -36 -38 0
-5 -30 -36 -44 0
-5 -30 -38 -44 0
-5 -36 -38 -44 0
-10 -18 -24 -30 0
-10 -18 -24 -36 0
-10 -18 -24 -38 0
-10 -18 -24 -44 0
-10 -18 -30 -36 0
-10 -18 -30 -38 0
-10 -18 -30 -44 0
-10 -18 -36 -38 0
-10 -18 -36 -44 0
-10 -18 -38 -44 0
-10 -24 -30 -36 0
-10 -24 -30 -38 0
-10 -24 -30 -44 0
-10 -24 -36 -38 0
-10 -24 -36 -44 0
-10 -24 -38 -44 0
-10 -30 -36 -38 0
-10 -30 -36 -44 0
-10 -30 -38 -44 0
-10 -36 -38 -44 0
-18 -24 -30 -36 0
-18 -24 -30 -38 0
-18 -24 -30 -44 0
-18 -24 -36 -38 0
-18 -24 -36 -44 0
-18 -24 -38 -44 0
-18 -30 -36 -38 0
-18 -30 -36 -44 0
-18 -30 -38 -44 0
-18 -36 -38 -44 0
-24 -30 -36 -38 0
-24 -30 -36 -44 0
-24 -30 -38 -44 0
-24 -36 -38 -44 0
-30 -36 -38 -44 0
-6 -11 -13 -19 0
-6 -11 -13 -25 0
-6 -11 -13 -31 0
-6 -11 -13 -39 0
-6 -11 -13 -45 0
-6 -11 -19 -25 0
-6 -11 -19 -31 0
-6 -11 -19 -39 0
-6 -11 -19 -45 0
-6 -11 -25 -31 0
-6 -11 -25 -39 0
-6 -11 -25 -45 0
-6 -11 -31 -39 0
-6 -11 -31 -45 0
-6 -11 -39 -45 0
-6 -13 -19 -25 0
-6 -13 -19 -31 0
-6 -13 -19 -39 0
-6 -13 -19 -45 0
-6 -13 -25 -31 0
-6 -13 -25 -39 0
-6 -13 -25 -45 0
-6 -13 -31 -39 0
-6 -13 -31 -45 0
-6 -13 -39 -45 0
-6 -19 -25 -31 0
-6 -19 -25 -39 0
-6 -19 -25 -45 0
-6 -19 -31 -39 0
-6 -19 -31 -45 0
-6 -19 -39 -45 0
-6 -25 -31 -39 0
-6 -25 -31 -45 0
-6 -25 -39 -45 0
-6 -31 -39 -45 0
-11 -13 -19 -25 0
-11 -13 -19 -31 0
-11 -13 -19 -39 0
-11 -13 -19 -45 0
-11 -13 -25 -31 0
-11 -13 -25 -39 0
-11 -13 -25 -45 0
-11 -13 -31 -39 0
-11 -13 -31 -45 0
-11 -13 -39 -45 0
-11 -19 -25 -31 0
-11 -19 -25 -39 0
-11 -19 -25 -45 0
-11 -19 -31 -39 0
-11 -19 -31 -45 0
-11 -19 -39 -45 0
-11 -25 -31 -39 0
-11 -25 -31 -45 0
-11 -25 -39 -45 0
-11 -31 -39 -45 0
-13 -19 -25 -31 0
-13 -19 -25 -39 0
-13 -19 -25 -45 0
-13 -19 -31 -39 0
-13 -19 -31 -45 0
-13 -19 -39 -45 0
-13 -25 -31 -39 0
-13 -25 -31 -45 0
-13 -25 -39 -45 0
-13 -31 -39 -45 0
-19 -25 -31 -39 0
-19 -25 -31 -45 0
-19 -25 -39 -45 0
-19 -31 -39 -45 0
-25 -31 -39 -45 0
-1 -8 -13 -23 0
-1 -8 -13 -30 0
-1 -8 -13 -35 0
-1 -8 -13 -42 0
-1 -8 -13 -45 0
-1 -8 -23 -30 0
-1 -8 -23 -35 0
-1 -8 -23 -42 0
-1 -8 -23 -45 0
-1 -8 -30 -35 0
-1 -8 -30 -42 0
-1 -8 -30 -45 0
-1 -8 -35 -42 0
-1 -8 -35 -45 0
-1 -8 -42 -45 0
-1 -13 -23 -30 0
-1 -13 -23 -35 0
-1 -13 -23 -42 0
-1 -13 -23 -45 0
-1 -13 -30 -35 0
-1 -13 -30 -42 0
-1 -13 -30 -45 0
-1 -13 -35 -42 0
-1 -13 -35 -45 0
-1 -13 -42 -45 0
-1 -23 -30 -35 0
-1 -23 -30 -42 0
-1 -23 -30 -45 0
-1 -23 -35 -42 0
-1 -23 -35 -45 0
-1 -23 -42 -45 0
-1 -30 -35 -42 0
-1 -30 -35 -45 0
-1 -30 -42 -45 0
-1 -35 -42 -45 0
-8 -13 -23 -30 0
-8 -13 -23 -35 0
-8 -13 -23 -42 0
-8 -13 -23 -45 0
-8 -13 -30 -35 0
-8 -13 -30 -42 0
-8 -13 -30 -45 0
-8 -13 -35 -42 0
-8 -13 -35 -45 0
-8 -13 -42 -45 0
-8 -23 -30 -35 0
-8 -23 -30 -42 0
-8 -23 -30 -45 0
-8 -23 -35 -42 0
-8 -23 -35 -45 0
-8 -23 -42 -45 0
-8 -30 -35 -42 0
-8 -30 -35 -45 0
-8 -30 -42 -45 0
-8 -35 -42 -45 0
-13 -23 -30 -35 0
-13 -23 -30 -42 0
-13 -23 -30 -45 0
-13 -23 -35 -42 0
-13 -23 -35 -45 0
-13 -23 -42 -45 0
-13 -30 -35 -42 0
-13 -30 -35 -45 0
-13 -30 -42 -45 0
-13 -35 -42 -45 0
-23 -30 -35 -42 0
-23 -30 -35 -45 0
-23 -30 -42 -45 0
-23 -35 -42 -45 0
-30 -35 -42 -45 0
-2 -9 -14 -24 0
-2 -9 -14 -25 0
-2 -9 -14 -36 0
-2 -9 -14 -37 0
-2 -9 -14 -46 0
-2 -9 -24 -25 0
-2 -9 -24 -36 0
-2 -9 -24 -37 0
-2 -9 -24 -46 0
-2 -9 -25 -36 0
-2 -9 -25 -37 0
-2 -9 -25 -46 0
-2 -9 -36 -37 0
-2 -9 -36 -46 0
-2 -9 -37 -46 0
-2 -14 -24 -25 0
-2 -14 -24 -36 0
-2 -14 -24 -37 0
-2 -14 -24 -46 0
-2 -14 -25 -36 0
-2 -14 -25 -37 0
-2 -14 -25 -46 0
-2 -14 -36 -37 0
-2 -14 -36 -46 0
-2 -14 -37 -46 0
-2 -24 -25 -36 0
-2 -24 -25 -37 0
-2 -24 -25 -46 0
-2 -24 -36 -37 0
-2 -24 -36 -46 0
-2 -24 -37 -46 0
-2 -25 -36 -37 0
-2 -25 -36 -46 0
-2 -25 -37 -46 0
-2 -36 -37 -46 0
-9 -14 -24 -25 0
-9 -14 -24 -36 0
-9 -14 -24 -37 0
-9 -14 -24 -46 0
-9 -14 -25 -36 0
-9 -14 -25 -37 0
-9 -14 -25 -46 0
-9 -14 -36 -37 0
-9 -14 -36 -46 0
-9 -14 -37 -46 0
-9 -24 -25 -36 0
-9 -24 -25 -37 0
-9 -24 -25 -46 0
-9 -24 -36 -37 0
-9 -24 -36 -46 0
-9 -24 -37 -46 0
-9 -25 -36 -37 0
-9 -25 -36 -46 0
-9 -25 -37 -46 0
-9 -36 -37 -46 0
-14 -24 -25 -36 0
-14 -24 -25 -37 0
-14 -24 -25 -46 0
-14 -24 -36 -37 0
-14 -24 -36 -46 0
-14 -24 -37 -46 0
-14 -25 -36 -37 0
-14 -25 -36 -46 0
-14 -25 -37 -46 0
-14 -36 -37 -46 0
-24 -25 -36 -37 0
-24 -25 -36 -46 0
-24 -25 -37 -46 0
-24 -36 -37 -46 0
-25 -36 -37 -46 0
-3 -10 -15 -19 0
-3 -10 -15 -26 0
-3 -10 -15 -31 0
-3 -10 -15 -38 0
-3 -10 -15 -47 0
-3 -10 -19 -26 0
-3 -10 -19 -31 0
-3 -10 -19 -38 0
-3 -10 -19 -47 0
-3 -10 -26 -31 0
-3 -10 -26 -38 0
-3 -10 -26 -47 0
-3 -10 -31 -38 0
-3 -10 -31 -47 0
-3 -10 -38 -47 0
-3 -15 -19 -26 0
-3 -15 -19 -31 0
-3 -15 -19 -38 0
-3 -15 -19 -47 0
-3 -15 -26 -31 0
-3 -15 -26 -38 0
-3 -15 -26 -47 0
-3 -15 -31 -38 0
-3 -15 -31 -47 0
-3 -15 -38 -47 0
-3 -19 -26 -31 0
-3 -19 -26 -38 0
-3 -19 -26 -47 0
-3 -19 -31 -38 0
-3 -19 -31 -47 0
-3 -19 -38 -47 0
-3 -26 -31 -38 0
-3 -26 -31 -47 0
-3 -26 -38 -47 0
-3 -31 -38 -47 0
-10 -15 -19 -26 0
-10 -15 -19 -31 0
-10 -15 -19 -38 0
-10 -15 -19 -47 0
-10 -15 -26 -31 0
-10 -15 -26 -38 0
-10 -15 -26 -47 0
-10 -15 -31 -38 0
-10 -15 -31 -47 0
-10 -15 -38 -47 0
-10 -19 -26 -31 0
-10 -19 -26 -38 0
-10 -19 -26 -47 0
-10 -19 -31 -38 0
-10 -19 -31 -47 0
-10 -19 -38 -47 0
-10 -26 -31 -38 0
-10 -26 -31 -47 0
-10 -26 -38 -47 0
-10 -31 -38 -47 0
-15 -19 -26 -31 0
-15 -19 -26 -38 0
-15 -19 -26 -47 0
-15 -19 -31 -38 0
-15 -19 -31 -47 0
-15 -19 -38 -47 0
-15 -26 -31 -38 0
-15 -26 -31 -47 0
-15 -26 -38 -47 0
-15 -31 -38 -47 0
-19 -26 -31 -38 0
-19 -26 -31 -47 0
-19 -26 -38 -47 0
-19 -31 -38 -47 0
-26 -31 -38 -47 0
-4 -11 -16 -20 0
-4 -11 -16 -27 0
-4 -11 -16 -32 0
-4 -11 -16 -39 0
-4 -11 -16 -48 0
-4 -11 -20 -27 0
-4 -11 -20 -32 0
-4 -11 -20 -39 0
-4 -11 -20 -48 0
-4 -11 -27 -32 0
-4 -11 -27 -39 0
-4 -11 -27 -48 0
-4 -11 -32 -39 0
-4 -11 -32 -48 0
-4 -11 -39 -48 0
-4 -16 -20 -27 0
-4 -16 -20 -32 0
-4 -16 -20 -39 0
-4 -16 -20 -48 0
-4 -16 -27 -32 0
-4 -16 -27 -39 0
-4 -16 -27 -48 0
-4 -16 -32 -39 0
-4 -16 -32 -48 0
-4 -16 -39 -48 0
-4 -20 -27 -32 0
-4 -20 -27 -39 0
-4 -20 -27 -48 0
-4 -20 -32 -39 0
-4 -20 -32 -48 0
-4 -20 -39 -48 0
-4 -27 -32 -39 0
-4 -27 -32 -48 0
-4 -27 -39 -48 0
-4 -32 -39 -48 0
-11 -16 -20 -27 0
-11 -16 -20 -32 0
-11 -16 -20 -39 0
-11 -16 -20 -48 0
-11 -16 -27 -32 0
-11 -16 -27 -39 0
-11 -16 -27 -48 0
-11 -16 -32 -39 0
-11 -16 -32 -48 0
-11 -16 -39 -48 0
-11 -20 -27 -32 0
-11 -20 -27 -39 0
-11 -20 -27 -48 0
-11 -20 -32 -39 0
-11 -20 -32 -48 0
-11 -20 -39 -48 0
-11 -27 -32 -39 0
-11 -27 -32 -48 0
-11 -27 -39 -48 0
-11 -32 -39 -48 0
-16 -20 -27 -32 0
-16 -20 -27 -39 0
-16 -20 -27 -48 0
-16 -20 -32 -39 0
-16 -20 -32 -48 0
-16 -20 -39 -48 0
-16 -27 -32 -39 0
-16 -27 -32 -48 0
-16 -27 -39 -48 0
-16 -32 -39 -48 0
-20 -27 -32 -39 0
-20 -27 -32 -48 0
-20 -27 -39 -48 0
-20 -32 -39 -48 0
-27 -32 -39 -48 0
-5 -12 -17 -21 0
-5 -12 -17 -28 0
-5 -12 -17 -33 0
-5 -12 -17 -40 0
-5 -12 -17 -43 0
-5 -12 -21 -28 0
-5 -12 -21 -33 0
-5 -12 -21 -40 0
-5 -12 -21 -43 0
-5 -12 -28 -33 0
-5 -12 -28 -40 0
-5 -12 -28 -43 0
-5 -12 -33 -40 0
-5 -12 -33 -43 0
-5 -12 -40 -43 0
-5 -17 -21 -28 0
-5 -17 -21 -33 0
-5 -17 -21 -40 0
-5 -17 -21 -43 0
-5 -17 -28 -33 0
-5 -17 -28 -40 0
-5 -17 -28 -43 0
-5 -17 -33 -40 0
-5 -17 -33 -43 0
-5 -17 -40 -43 0
-5 -21 -28 -33 0
-5 -21 -28 -40 0
-5 -21 -28 -43 0
-5 -21 -33 -40 0
-5 -21 -33 -43 0
-5 -21 -40 -43 0
-5 -28 -33 -40 0
-5 -28 -33 -43 0
-5 -28 -40 -43 0
-5 -33 -40 -43 0
-12 -17 -21 -28 0
-12 -17 -21 -33 0
-12 -17 -21 -40 0
-12 -17 -21 -43 0
-12 -17 -28 -33 0
-12 -17 -28 -40 0
-12 -17 -28 -43 0
-12 -17 -33 -40 0
-12 -17 -33 -43 0
-12 -17 -40 -43 0
-12 -21 -28 -33 0
-12 -21 -28 -40 0
-12 -21 -28 -43 0
-12 -21 -33 -40 0
-12 -21 -33 -43 0
-12 -21 -40 -43 0
-12 -28 -33 -40 0
-12 -28 -33 -43 0
-12 -28 -40 -43 0
-12 -33 -40 -43 0
-17 -21 -28 -33 0
-17 -21 -28 -40 0
-17 -21 -28 -43 0
-17 -21 -33 -40 0
-17 -21 -33 -43 0
-17 -21 -40 -43 0
-17 -28 -33 -40 0
-17 -28 -33 -43 0
-17 -28 -40 -43 0
-17 -33 -40 -43 0
-21 -28 -33 -40 0
-21 -28 -33 -43 0
-21 -28 -40 -43 0
-21 -33 -40 -43 0
-28 -33 -40 -43 0
-6 -7 -18 -22 0
-6 -7 -18 -29 0
-6 -7 -18 -34 0
-6 -7 -18 -41 0
-6 -7 -18 -44 0
-6 -7 -22 -29 0
-6 -7 -22 -34 0
-6 -7 -22 -41 0
-6 -7 -22 -44 0
-6 -7 -29 -34 0
-6 -7 -29 -41 0
-6 -7 -29 -44 0
-6 -7 -34 -41 0
-6 -7 -34 -44 0
-6 -7 -41 -44 0
-6 -18 -22 -29 0
-6 -18 -22 -34 0
-6 -18 -22 -41 0
-6 -18 -22 -44 0
-6 -18 -29 -34 0
-6 -18 -29 -41 0
-6 -18 -29 -44 0
-6 -18 -34 -41 0
-6 -18 -34 -44 0
-6 -18 -41 -44 0
-6 -22 -29 -34 0
-6 -22 -29 -41 0
-6 -22 -29 -44 0
-6 -22 -34 -41 0
-6 -22 -34 -44 0
-6 -22 -41 -44 0
-6 -29 -34 -41 0
-6 -29 -34 -44 0
-6 -29 -41 -44 0
-6 -34 -41 -44 0
-7 -18 -22 -29 0
-7 -18 -22 -34 0
-7 -18 -22 -41 0
-7 -18 -22 -44 0
-7 -18 -29 -34 0
-7 -18 -29 -41 0
-7 -18 -29 -44 0
-7 -18 -34 -41 0
-7 -18 -34 -44 0
-7 -18 -41 -44 0
-7 -22 -29 -34 0
-7 -22 -29 -41 0
-7 -22 -29 -44 0
-7 -22 -34 -41 0
-7 -22 -34 -44 0
-7 -22 -41 -44 0
-7 -29 -34 -41 0
-7 -29 -34 -44 0
-7 -29 -41 -44 0
-7 -34 -41 -44 0
-18 -22 -29 -34 0
-18 -22 -29 -41 0
-18 -22 -29 -44 0
-18 -22 -34 -41 0
-18 -22 -34 -44 0
-18 -22 -41 -44 0
-18 -29 -34 -41 0
-18 -29 -34 -44 0
-18 -29 -41 -44 0
-18 -34 -41 -44 0
-22 -29 -34 -41 0
-22 -29 -34 -44 0
-22 -29 -41 -44 0
-22 -34 -41 -44 0
-29 -34 -41 -44 0
-1 -7 -18 -23 0
-1 -7 -18 -29 0
-1 -7 -18 -32 0
-1 -7 -18 -39 0
-1 -7 -18 -48 0
-1 -7 -23 -29 0
-1 -7 -23 -32 0
-1 -7 -23 -39 0
-1 -7 -23 -48 0
-1 -7 -29 -32 0
-1 -7 -29 -39 0
-1 -7 -29 -48 0
-1 -7 -32 -39 0
-1 -7 -32 -48 0
-1 -7 -39 -48 0
-1 -18 -23 -29 0
-1 -18 -23 -32 0
-1 -18 -23 -39 0
-1 -18 -23 -48 0
-1 -18 -29 -32 0
-1 -18 -29 -39 0
-1 -18 -29 -48 0
-1 -18 -32 -39 0
-1 -18 -32 -48 0
-1 -18 -39 -48 0
-1 -23 -29 -32 0
-1 -23 -29 -39 0
-1 -23 -29 -48 0
-1 -23 -32 -39 0
-1 -23 -32 -48 0
-1 -23 -39 -48 0
-1 -29 -32 -39 0
-1 -29 -32 -48 0
-1 -29 -39 -48 0
-1 -32 -39 -48 0
-7 -18 -23 -29 0
-7 -18 -23 -32 0
-7 -18 -23 -39 0
-7 -18 -23 -48 0
-7 -18 -29 -32 0
-7 -18 -29 -39 0
-7 -18 -29 -48 0
-7 -18 -32 -39 0
-7 -18 -32 -48 0
-7 -18 -39 -48 0
-7 -23 -29 -32 0
-7 -23 -29 -39 0
-7 -23 -29 -48 0
-7 -23 -32 -39 0
-7 -23 -32 -48 0
-7 -23 -39 -48 0
-7 -29 -32 -39 0
-7 -29 -32 -48 0
-7 -29 -39 -48 0
-7 -32 -39 -48 0
-18 -23 -29 -32 0
-18 -23 -29 -39 0
-18 -23 -29 -48 0
-18 -23 -32 -39 0
-18 -23 -32 -48 0
-18 -23 -39 -48 0
-18 -29 -32 -39 0
-18 -29 -32 -48 0
-18 -29 -39 -48 0
-18 -32 -39 -48 0
-23 -29 -32 -39 0
-23 -29 -32 -48 0
-23 -29 -39 -48 0
-23 -32 -39 -48 0
-29 -32 -39 -48 0
-2 -8 -13 -24 0
-2 -8 -13 -30 0
-2 -8 -13 -33 0
-2 -8 -13 -40 0
-2 -8 -13 -43 0
-2 -8 -24 -30 0
-2 -8 -24 -33 0
-2 -8 -24 -40 0
-2 -8 -24 -43 0
-2 -8 -30 -33 0
-2 -8 -30 -40 0
-2 -8 -30 -43 0
-2 -8 -33 -40 0
-2 -8 -33 -43 0
-2 -8 -40 -43 0
-2 -13 -24 -30 0
-2 -13 -24 -33 0
-2 -13 -24 -40 0
-2 -13 -24 -43 0
-2 -13 -30 -33 0
-2 -13 -30 -40 0
-2 -13 -30 -43 0
-2 -13 -33 -40 0
-2 -13 -33 -43 0
-2 -13 -40 -43 0
-2 -24 -30 -33 0
-2 -24 -30 -40 0
-2 -24 -30 -43 0
-2 -24 -33 -40 0
-2 -24 -33 -43 0
-2 -24 -40 -43 0
-2 -30 -33 -40 0
-2 -30 -33 -43 0
-2 -30 -40 -43 0
-2 -33 -40 -43 0
-8 -13 -24 -30 0
-8 -13 -24 -33 0
-8 -13 -24 -40 0
-8 -13 -24 -43 0
-8 -13 -30 -33 0
-8 -13 -30 -40 0
-8 -13 -30 -43 0
-8 -13 -33 -40 0
-8 -13 -33 -43 0
-8 -13 -40 -43 0
-8 -24 -30 -33 0
-8 -24 -30 -40 0
-8 -24 -30 -43 0
-8 -24 -33 -40 0
-8 -24 -33 -43 0
-8 -24 -40 -43 0
-8 -30 -33 -40 0
-8 -30 -33 -43 0
-8 -30 -40 -43 0
-8 -33 -40 -43 0
-13 -24 -30 -33 0
-13 -24 -30 -40 0
-13 -24 -30 -43 0
-13 -24 -33 -40 0
-13 -24 -33 -43 0
-13 -24 -40 -43 0
-13 -30 -33 -40 0
-13 -30 -33 -43 0
-13 -30 -40 -43 0
-13 -33 -40 -43 0
-24 -30 -33 -40 0
-24 -30 -33 -43 0
-24 -30 -40 -43 0
-24 -33 -40 -43 0
-30 -33 -40 -43 0
-3 -9 -14 -19 0
-3 -9 -14 -25 0
-3 -9 -14 -34 0
-3 -9 -14 -41 0
-3 -9 -14 -44 0
-3 -9 -19 -25 0
-3 -9 -19 -34 0
-3 -9 -19 -41 0
-3 -9 -19 -44 0
-3 -9 -25 -34 0
-3 -9 -25 -41 0
-3 -9 -25 -44 0
-3 -9 -34 -41 0
-3 -9 -34 -44 0
-3 -9 -41 -44 0
-3 -14 -19 -25 0
-3 -14 -19 -34 0
-3 -14 -19 -41 0
-3 -14 -19 -44 0
-3 -14 -25 -34 0
-3 -14 -25 -41 0
-3 -14 -25 -44 0
-3 -14 -34 -41 0
-3 -14 -34 -44 0
-3 -14 -41 -44 0
-3 -19 -25 -34 0
-3 -19 -25 -41 0
-3 -19 -25 -44 0
-3 -19 -34 -41 0
-3 -19 -34 -44 0
-3 -19 -41 -44 0
-3 -25 -34 -41 0
-3 -25 -34 -44 0
-3 -25 -41 -44 0
-3 -34 -41 -44 0
-9 -14 -19 -25 0
-9 -14 -19 -34 0
-9 -14 -19 -41 0
-9 -14 -19 -44 0
-9 -14 -25 -34 0
-9 -14 -25 -41 0
-9 -14 -25 -44 0
-9 -14 -34 -41 0
-9 -14 -34 -44 0
-9 -14 -41 -44 0
-9 -19 -25 -34 0
-9 -19 -25 -41 0
-9 -19 -25 -44 0
-9 -19 -34 -41 0
-9 -19 -34 -44 0
-9 -19 -41 -44 0
-9 -25 -34 -41 0
-9 -25 -34 -44 0
-9 -25 -41 -44 0
-9 -34 -41 -44 0
-14 -19 -25 -34 0
-14 -19 -25 -41 0
-14 -19 -25 -44 0
-14 -19 -34 -41 0
-14 -19 -34 -44 0
-14 -19 -41 -44 0
-14 -25 -34 -41 0
-14 -25 -34 -44 0
-14 -25 -41 -44 0
-14 -34 -41 -44 0
-19 -25 -34 -41 0
-19 -25 -34 -44 0
-19 -25 -41 -44 0
-19 -34 -41 -44 0
-25 -34 -41 -44 0
-4 -10 -15 -20 0
-4 -10 -15 -26 0
-4 -10 -15 -35 0
-4 -10 -15 -42 0
-4 -10 -15 -45 0
-4 -10 -20 -26 0
-4 -10 -20 -35 0
-4 -10 -20 -42 0
-4 -10 -20 -45 0
-4 -10 -26 -35 0
-4 -10 -26 -42 0
-4 -10 -26 -45 0
-4 -10 -35 -42 0
-4 -10 -35 -45 0
-4 -10 -42 -45 0
-4 -15 -20 -26 0
-4 -15 -20 -35 0
-4 -15 -20 -42 0
-4 -15 -20 -45 0
-4 -15 -26 -35 0
-4 -15 -26 -42 0
-4 -15 -26 -45 0
-4 -15 -35 -42 0
-4 -15 -35 -45 0
-4 -15 -42 -45 0
-4 -20 -26 -35 0
-4 -20 -26 -42 0
-4 -20 -26 -45 0
-4 -20 -35 -42 0
-4 -20 -35 -45 0
-4 -20 -42 -45 0
-4 -26 -35 -42 0
-4 -26 -35 -45 0
-4 -26 -42 -45 0
-4 -35 -42 -45 0
-10 -15 -20 -26 0
-10 -15 -20 -35 0
-10 -15 -20 -42 0
-10 -15 -20 -45 0
-10 -15 -26 -35 0
-10 -15 -26 -42 0
-10 -15 -26 -45 0
-10 -15 -35 -42 0
-10 -15 -35 -45 0
-10 -15 -42 -45 0
-10 -20 -26 -35 0
-10 -20 -26 -42 0
-10 -20 -26 -45 0
-10 -20 -35 -42 0
-10 -20 -35 -45 0
-10 -20 -42 -45 0
-10 -26 -35 -42 0
-10 -26 -35 -45 0
-10 -26 -42 -45 0
-10 -35 -42 -45 0
-15 -20 -26 -35 0
-15 -20 -26 -42 0
-15 -20 -26 -45 0
-15 -20 -35 -42 0
-15 -20 -35 -45 0
-15 -20 -42 -45 0
-15 -26 -35 -42 0
-15 -26 -35 -45 0
-15 -26 -42 -45 0
-15 -35 -42 -45 0
-20 -26 -35 -42 0
-20 -26 -35 -45 0
-20 -26 -42 -45 0
-20 -35 -42 -45 0
-26 -35 -42 -45 0
-5 -11 -16 -21 0
-5 -11 -16 -27 0
-5 -11 -16 -36 0
-5 -11 -16 -37 0
-5 -11 -16 -46 0
-5 -11 -21 -27 0
-5 -11 -21 -36 0
-5 -11 -21 -37 0
-5 -11 -21 -46 0
-5 -11 -27 -36 0
-5 -11 -27 -37 0
-5 -11 -27 -46 0
-5 -11 -36 -37 0
-5 -11 -36 -46 0
-5 -11 -37 -46 0
-5 -16 -21 -27 0
-5 -16 -21 -36 0
-5 -16 -21 -37 0
-5 -16 -21 -46 0
-5 -16 -27 -36 0
-5 -16 -27 -37 0
-5 -16 -27 -46 0
-5 -16 -36 -37 0
-5 -16 -36 -46 0
-5 -16 -37 -46 0
-5 -21 -27 -36 0
-5 -21 -27 -37 0
-5 -21 -27 -46 0
-5 -21 -36 -37 0
-5 -21 -36 -46 0
-5 -21 -37 -46 0
-5 -27 -36 -37 0
-5 -27 -36 -46 0
-5 -27 -37 -46 0
-5 -36 -37 -46 0
-11 -16 -21 -27 0
-11 -16 -21 -36 0
-11 -16 -21 -37 0
-11 -16 -21 -46 0
-11 -16 -27 -36 0
-11 -16 -27 -37 0
-11 -16 -27 -46 0
-11 -16 -36 -37 0
-11 -16 -36 -46 0
-11 -16 -37 -46 0
-11 -21 -27 -36 0
-11 -21 -27 -37 0
-11 -21 -27 -46 0
-11 -21 -36 -37 0
-11 -21 -36 -46 0
-11 -21 -37 -46 0
-11 -27 -36 -37 0
-11 -27 -36 -46 0
-11 -27 -37 -46 0
-11 -36 -37 -46 0
-16 -21 -27 -36 0
-16 -21 -27 -37 0
-16 -21 -27 -46 0
-16 -21 -36 -37 0
-16 -21 -36 -46 0
-16 -21 -37 -46 0
-16 -27 -36 -37 0
-16 -27 -36 -46 0
-16 -27 -37 -46 0
-16 -36 -37 -46 0
-21 -27 -36 -37 0
-21 -27 -36 -46 0
-21 -27 -37 -46 0
-21 -36 -37 -46 0
-27 -36 -37 -46 0
-6 -12 -17 -22 0
-6 -12 -17 -28 0
-6 -12 -17 -31 0
-6 -12 -17 -38 0
-6 -12 -17 -47 0
-6 -12 -22 -28 0
-6 -12 -22 -31 0
-6 -12 -22 -38 0
-6 -12 -22 -47 0
-6 -12 -28 -31 0
-6 -12 -28 -38 0
-6 -12 -28 -47 0
-6 -12 -31 -38 0
-6 -12 -31 -47 0
-6 -12 -38 -47 0
-6 -17 -22 -28 0
-6 -17 -22 -31 0
-6 -17 -22 -38 0
-6 -17 -22 -47 0
-6 -17 -28 -31 0
-6 -17 -28 -38 0
-6 -17 -28 -47 0
-6 -17 -31 -38 0
-6 -17 -31 -47 0
-6 -17 -38 -47 0
-6 -22 -28 -31 0
-6 -22 -28 -38 0
-6 -22 -28 -47 0
-6 -22 -31 -38 0
-6 -22 -31 -47 0
-6 -22 -38 -47 0
-6 -28 -31 -38 0
-6 -28 -31 -47 0
-6 -28 -38 -47 0
-6 -31 -38 -47 0
-12 -17 -22 -28 0
-12 -17 -22 -31 0
-12 -17 -22 -38 0
-12 -17 -22 -47 0
-12 -17 -28 -31 0
-12 -17 -28 -38 0
-12 -17 -28 -47 0
-12 -17 -31 -38 0
-12 -17 -31 -47 0
-12 -17 -38 -47 0
-12 -22 -28 -31 0
-12 -22 -28 -38 0
-12 -22 -28 -47 0
-12 -22 -31 -38 0
-12 -22 -31 -47 0
-12 -22 -38 -47 0
-12 -28 -31 -38 0
-12 -28 -31 -47 0
-12 -28 -38 -47 0
-12 -31 -38 -47 0
-17 -22 -28 -31 0
-17 -22 -28 -38 0
-17 -22 -28 -47 0
-17 -22 -31 -38 0
-17 -22 -31 -47 0
-17 -22 -38 -47 0
-17 -28 -31 -38 0
-17 -28 -31 -47 0
-17 -28 -38 -47 0
-17 -31 -38 -47 0
-22 -28 -31 -38 0
-22 -28 -31 -47 0
-22 -28 -38 -47 0
-22 -31 -38 -47 0
-28 -31 -38 -47 0
-1 -9 -15 -22 0
-1 -9 -15 -26 0
-1 -9 -15 -36 0
-1 -9 -15 -37 0
-1 -9 -15 -43 0
-1 -9 -22 -26 0
-1 -9 -22 -36 0
-1 -9 -22 -37 0
-1 -9 -22 -43 0
-1 -9 -26 -36 0
-1 -9 -26 -37 0
-1 -9 -26 -43 0
-1 -9 -36 -37 0
-1 -9 -36 -43 0
-1 -9 -37 -43 0
-1 -15 -22 -26 0
-1 -15 -22 -36 0
-1 -15 -22 -37 0
-1 -15 -22 -43 0
-1 -15 -26 -36 0
-1 -15 -26 -37 0
-1 -15 -26 -43 0
-1 -15 -36 -37 0
-1 -15 -36 -43 0
-1 -15 -37 -43 0
-1 -22 -26 -36 0
-1 -22 -26 -37 0
-1 -22 -26 -43 0
-1 -22 -36 -37 0
-1 -22 -36 -43 0
-1 -22 -37 -43 0
-1 -26 -36 -37 0
-1 -26 -36 -43 0
-1 -26 -37 -43 0
-1 -36 -37 -43 0
-9 -15 -22 -26 0
-9 -15 -22 -36 0
-9 -15 -22 -37 0
-9 -15 -22 -43 0
-9 -15 -26 -36 0
-9 -15 -26 -37 0
-9 -15 -26 -43 0
-9 -15 -36 -37 0
-9 -15 -36 -43 0
-9 -15 -37 -43 0
-9 -22 -26 -36 0
-9 -22 -26 -37 0
-9 -22 -26 -43 0
-9 -22 -36 -37 0
-9 -22 -36 -43 0
-9 -22 -37 -43 0
-9 -26 -36 -37 0
-9 -26 -36 -43 0
-9 -26 -37 -43 0
-9 -36 -37 -43 0
-15 -22 -26 -36 0
-15 -22 -26 -37 0
-15 -22 -26 -43 0
-15 -22 -36 -37 0
-15 -22 -36 -43 0
-15 -22 -37 -43 0
-15 -26 -36 -37 0
-15 -26 -36 -43 0
-15 -26 -37 -43 0
-15 -36 -37 -43 0
-22 -26 -36 -37 0
-22 -26 -36 -43 0
-22 -26 -37 -43 0
-22 -36 -37 -43 0
-26 -36 -37 -43 0
-2 -10 -16 -23 0
-2 -10 -16 -27 0
-2 -10 -16 -31 0
-2 -10 -16 -38 0
-2 -10 -16 -44 0
-2 -10 -23 -27 0
-2 -10 -23 -31 0
-2 -10 -23 -38 0
-2 -10 -23 -44 0
-2 -10 -27 -31 0
-2 -10 -27 -38 0
-2 -10 -27 -44 0
-2 -10 -31 -38 0
-2 -10 -31 -44 0
-2 -10 -38 -44 0
-2 -16 -23 -27 0
-2 -16 -23 -31 0
-2 -16 -23 -38 0
-2 -16 -23 -44 0
-2 -16 -27 -31 0
-2 -16 -27 -38 0
-2 -16 -27 -44 0
-2 -16 -31 -38 0
-2 -16 -31 -44 0
-2 -16 -38 -44 0
-2 -23 -27 -31 0
-2 -23 -27 -38 0
-2 -23 -27 -44 0
-2 -23 -31 -38 0
-2 -23 -31 -44 0
-2 -23 -38 -44 0
-2 -27 -31 -38 0
-2 -27 -31 -44 0
-2 -27 -38 -44 0
-2 -31 -38 -44 0
-10 -16 -23 -27 0
-10 -16 -23 -31 0
-10 -16 -23 -38 0
-10 -16 -23 -44 0
-10 -16 -27 -31 0
-10 -16 -27 -38 0
-10 -16 -27 -44 0
-10 -16 -31 -38 0
-10 -16 -31 -44 0
-10 -16 -38 -44 0
-10 -23 -27 -31 0
-10 -23 -27 -38 0
-10 -23 -27 -44 0
-10 -23 -31 -38 0
-10 -23 -31 -44 0
-10 -23 -38 -44 0
-10 -27 -31 -38 0
-10 -27 -31 -44 0
-10 -27 -38 -44 0
-10 -31 -38 -44 0
-16 -23 -27 -31 0
-16 -23 -27 -38 0
-16 -23 -27 -44 0
-16 -23 -31 -38 0
-16 -23 -31 -44 0
-16 -23 -38 -44 0
-16 -27 -31 -38 0
-16 -27 -31 -44 0
-16 -27 -38 -44 0
-16 -31 -38 -44 0
-23 -27 -31 -38 0
-23 -27 -31 -44 0
-23 -27 -38 -44 0
-23 -31 -38 -44 0
-27 -31 -38 -44 0
-3 -11 -17 -24 0
-3 -11 -17 -28 0
-3 -11 -17 -32 0
-3 -11 -17 -39 0
-3 -11 -17 -45 0
-3 -11 -24 -28 0
-3 -11 -24 -32 0
-3 -11 -24 -39 0
-3 -11 -24 -45 0
-3 -11 -28 -32 0
-3 -11 -28 -39 0
-3 -11 -28 -45 0
-3 -11 -32 -39 0
-3 -11 -32 -45 0
-3 -11 -39 -45 0
-3 -17 -24 -28 0
-3 -17 -24 -32 0
-3 -17 -24 -39 0
-3 -17 -24 -45 0
-3 -17 -28 -32 0
-3 -17 -28 -39 0
-3 -17 -28 -45 0
-3 -17 -32 -39 0
-3 -17 -32 -45 0
-3 -17 -39 -45 0
-3 -24 -28 -32 0
-3 -24 -28 -39 0
-3 -24 -28 -45 0
-3 -24 -32 -39 0
-3 -24 -32 -45 0
-3 -24 -39 -45 0
-3 -28 -32 -39 0
-3 -28 -32 -45 0
-3 -28 -39 -45 0
-3 -32 -39 -45 0
-11 -17 -24 -28 0
-11 -17 -24 -32 0
-11 -17 -24 -39 0
-11 -17 -24 -45 0
-11 -17 -28 -32 0
-11 -17 -28 -39 0
-11 -17 -28 -45 0
-11 -17 -32 -39 0
-11 -17 -32 -45 0
-11 -17 -39 -45 0
-11 -24 -28 -32 0
-11 -24 -28 -39 0
-11 -24 -28 -45 0
-11 -24 -32 -39 0
-11 -24 -32 -45 0
-11 -24 -39 -45 0
-11 -28 -32 -39 0
-11 -28 -32 -45 0
-11 -28 -39 -45 0
-11 -32 -39 -45 0
-17 -24 -28 -32 0
-17 -24 -28 -39 0
-17 -24 -28 -45 0
-17 -24 -32 -39 0
-17 -24 -32 -45 0
-17 -24 -39 -45 0
-17 -28 -32 -39 0
-17 -28 -32 -45 0
-17 -28 -39 -45 0
-17 -32 -39 -45 0
-24 -28 -32 -39 0
-24 -28 -32 -45 0
-24 -28 -39 -45 0
-24 -32 -39 -45 0
-28 -32 -39 -45 0
-4 -12 -18 -19 0
-4 -12 -18 -29 0
-4 -12 -18 -33 0
-4 -12 -18 -40 0
-4 -12 -18 -46 0
-4 -12 -19 -29 0
-4 -12 -19 -33 0
-4 -12 -19 -40 0
-4 -12 -19 -46 0
-4 -12 -29 -33 0
-4 -12 -29 -40 0
-4 -12 -29 -46 0
-4 -12 -33 -40 0
-4 -12 -33 -46 0
-4 -12 -40 -46 0
-4 -18 -19 -29 0
-4 -18 -19 -33 0
-4 -18 -19 -40 0
-4 -18 -19 -46 0
-4 -18 -29 -33 0
-4 -18 -29 -40 0
-4 -18 -29 -46 0
-4 -18 -33 -40 0
-4 -18 -33 -46 0
-4 -18 -40 -46 0
-4 -19 -29 -33 0
-4 -19 -29 -40 0
-4 -19 -29 -46 0
-4 -19 -33 -40 0
-4 -19 -33 -46 0
-4 -19 -40 -46 0
-4 -29 -33 -40 0
-4 -29 -33 -46 0
-4 -29 -40 -46 0
-4 -33 -40 -46 0
-12 -18 -19 -29 0
-12 -18 -19 -33 0
-12 -18 -19 -40 0
-12 -18 -19 -46 0
-12 -18 -29 -33 0
-12 -18 -29 -40 0
-12 -18 -29 -46 0
-12 -18 -33 -40 0
-12 -18 -33 -46 0
-12 -18 -40 -46 0
-12 -19 -29 -33 0
-12 -19 -29 -40 0
-12 -19 -29 -46 0
-12 -19 -33 -40 0
-12 -19 -33 -46 0
-12 -19 -40 -46 0
-12 -29 -33 -40 0
-12 -29 -33 -46 0
-12 -29 -40 -46 0
-12 -33 -40 -46 0
-18 -19 -29 -33 0
-18 -19 -29 -40 0
-18 -19 -29 -46 0
-18 -19 -33 -40 0
-18 -19 -33 -46 0
-18 -19 -40 -46 0
-18 -29 -33 -40 0
-18 -29 -33 -46 0
-18 -29 -40 -46 0
-18 -33 -40 -46 0
-19 -29 -33 -40 0
-19 -29 -33 -46 0
-19 -29 -40 -46 0
-19 -33 -40 -46 0
-29 -33 -40 -46 0
-5 -7 -13 -20 0
-5 -7 -13 -30 0
-5 -7 -13 -34 0
-5 -7 -13 -41 0
-5 -7 -13 -47 0
-5 -7 -20 -30 0
-5 -7 -20 -34 0
-5 -7 -20 -41 0
-5 -7 -20 -47 0
-5 -7 -30 -34 0
-5 -7 -30 -41 0
-5 -7 -30 -47 0
-5 -7 -34 -41 0
-5 -7 -34 -47 0
-5 -7 -41 -47 0
-5 -13 -20 -30 0
-5 -13 -20 -34 0
-5 -13 -20 -41 0
-5 -13 -20 -47 0
-5 -13 -30 -34 0
-5 -13 -30 -41 0
-5 -13 -30 -47 0
-5 -13 -34 -41 0
-5 -13 -34 -47 0
-5 -13 -41 -47 0
-5 -20 -30 -34 0
-5 -20 -30 -41 0
-5 -20 -30 -47 0
-5 -20 -34 -41 0
-5 -20 -34 -47 0
-5 -20 -41 -47 0
-5 -30 -34 -41 0
-5 -30 -34 -47 0
-5 -30 -41 -47 0
-5 -34 -41 -47 0
-7 -13 -20 -30 0
-7 -13 -20 -34 0
-7 -13 -20 -41 0
-7 -13 -20 -47 0
-7 -13 -30 -34 0
-7 -13 -30 -41 0
-7 -13 -30 -47 0
-7 -13 -34 -41 0
-7 -13 -34 -47 0
-7 -13 -41 -47 0
-7 -20 -30 -34 0
-7 -20 -30 -41 0
-7 -20 -30 -47 0
-7 -20 -34 -41 0
-7 -20 -34 -47 0
-7 -20 -41 -47 0
-7 -30 -34 -41 0
-7 -30 -34 -47 0
-7 -30 -41 -47 0
-7 -34 -41 -47 0
-13 -20 -30 -34 0
-13 -20 -30 -41 0
-13 -20 -30 -47 0
-13 -20 -34 -41 0
-13 -20 -34 -47 0
-13 -20 -41 -47 0
-13 -30 -34 -41 0
-13 -30 -34 -47 0
-13 -30 -41 -47 0
-13 -34 -41 -47 0
-20 -30 -34 -41 0
-20 -30 -34 -47 0
-20 -30 -41 -47 0
-20 -34 -41 -47 0
-30 -34 -41 -47 0
-6 -8 -14 -21 0
-6 -8 -14 -25 0
-6 -8 -14 -35 0
-6 -8 -14 -42 0
-6 -8 -14 -48 0
-6 -8 -21 -25 0
-6 -8 -21 -35 0
-6 -8 -21 -42 0
-6 -8 -21 -48 0
-6 -8 -25 -35 0
-6 -8 -25 -42 0
-6 -8 -25 -48 0
-6 -8 -35 -42 0
-6 -8 -35 -48 0
-6 -8 -42 -48 0
-6 -14 -21 -25 0
-6 -14 -21 -35 0
-6 -14 -21 -42 0
-6 -14 -21 -48 0
-6 -14 -25 -35 0
-6 -14 -25 -42 0
-6 -14 -25 -48 0
-6 -14 -35 -42 0
-6 -14 -35 -48 0
-6 -14 -42 -48 0
-6 -21 -25 -35 0
-6 -21 -25 -42 0
-6 -21 -25 -48 0
-6 -21 -35 -42 0
-6 -21 -35 -48 0
-6 -21 -42 -48 0
-6 -25 -35 -42 0
-6 -25 -35 -48 0
-6 -25 -42 -48 0
-6 -35 -42 -48 0
-8 -14 -21 -25 0
-8 -14 -21 -35 0
-8 -14 -21 -42 0
-8 -14 -21 -48 0
-8 -14 -25 -35 0
-8 -14 -25 -42 0
-8 -14 -25 -48 0
-8 -14 -35 -42 0
-8 -14 -35 -48 0
-8 -14 -42 -48 0
-8 -21 -25 -35 0
-8 -21 -25 -42 0
-8 -21 -25 -48 0
-8 -21 -35 -42 0
-8 -21 -35 -48 0
-8 -21 -42 -48 0
-8 -25 -35 -42 0
-8 -25 -35 -48 0
-8 -25 -42 -48 0
-8 -35 -42 -48 0
-14 -21 -25 -35 0
-14 -21 -25 -42 0
-14 -21 -25 -48 0
-14 -21 -35 -42 0
-14 -21 -35 -48 0
-14 -21 -42 -48 0
-14 -25 -35 -42 0
-14 -25 -35 -48 0
-14 -25 -42 -48 0
-14 -35 -42 -48 0
-21 -25 -35 -42 0
-21 -25 -35 -48 0
-21 -25 -42 -48 0
-21 -35 -42 -48 0
-25 -35 -42 -48 0
-1 -12 -15 -21 0
-1 -12 -15 -28 0
-1 -12 -15 -34 0
-1 -12 -15 -38 0
-1 -12 -15 -48 0
-1 -12 -21 -28 0
-1 -12 -21 -34 0
-1 -12 -21 -38 0
-1 -12 -21 -48 0
-1 -12 -28 -34 0
-1 -12 -28 -38 0
-1 -12 -28 -48 0
-1 -12 -34 -38 0
-1 -12 -34 -48 0
-1 -12 -38 -48 0
-1 -15 -21 -28 0
-1 -15 -21 -34 0
-1 -15 -21 -38 0
-1 -15 -21 -48 0
-1 -15 -28 -34 0
-1 -15 -28 -38 0
-1 -15 -28 -48 0
-1 -15 -34 -38 0
-1 -15 -34 -48 0
-1 -15 -38 -48 0
-1 -21 -28 -34 0
-1 -21 -28 -38 0
-1 -21 -28 -48 0
-1 -21 -34 -38 0
-1 -21 -34 -48 0
-1 -21 -38 -48 0
-1 -28 -34 -38 0
-1 -28 -34 -48 0
-1 -28 -38 -48 0
-1 -34 -38 -48 0
-12 -15 -21 -28 0
-12 -15 -21 -34 0
-12 -15 -21 -38 0
-12 -15 -21 -48 0
-12 -15 -28 -34 0
-12 -15 -28 -38 0
-12 -15 -28 -48 0
-12 -15 -34 -38 0
-12 -15 -34 -48 0
-12 -15 -38 -48 0
-12 -21 -28 -34 0
-12 -21 -28 -38 0
-12 -21 -28 -48 0
-12 -21 -34 -38 0
-12 -21 -34 -48 0
-12 -21 -38 -48 0
-12 -28 -34 -38 0
-12 -28 -34 -48 0
-12 -28 -38 -48 0
-12 -34 -38 -48 0
-15 -21 -28 -34 0
-15 -21 -28 -38 0
-15 -21 -28 -48 0
-15 -21 -34 -38 0
-15 -21 -34 -48 0
-15 -21 -38 -48 0
-15 -28 -34 -38 0
-15 -28 -34 -48 0
-15 -28 -38 -48 0
-15 -34 -38 -48 0
-21 -28 -34 -38 0
-21 -28 -34 -48 0
-21 -28 -38 -48 0
-21 -34 -38 -48 0
-28 -34 -38 -48 0
-2 -7 -16 -22 0
-2 -7 -16 -29 0
-2 -7 -16 -35 0
-2 -7 -16 -39 0
-2 -7 -16 -43 0
-2 -7 -22 -29 0
-2 -7 -22 -35 0
-2 -7 -22 -39 0
-2 -7 -22 -43 0
-2 -7 -29 -35 0
-2 -7 -29 -39 0
-2 -7 -29 -43 0
-2 -7 -35 -39 0
-2 -7 -35 -43 0
-2 -7 -39 -43 0
-2 -16 -22 -29 0
-2 -16 -22 -35 0
-2 -16 -22 -39 0
-2 -16 -22 -43 0
-2 -16 -29 -35 0
-2 -16 -29 -39 0
-2 -16 -29 -43 0
-2 -16 -35 -39 0
-2 -16 -35 -43 0
-2 -16 -39 -43 0
-2 -22 -29 -35 0
-2 -22 -29 -39 0
-2 -22 -29 -43 0
-2 -22 -35 -39 0
-2 -22 -35 -43 0
-2 -22 -39 -43 0
-2 -29 -35 -39 0
-2 -29 -35 -43 0
-2 -29 -39 -43 0
-2 -35 -39 -43 0
-7 -16 -22 -29 0
-7 -16 -22 -35 0
-7 -16 -22 -39 0
-7 -16 -22 -43 0
-7 -16 -29 -35 0
-7 -16 -29 -39 0
-7 -16 -29 -43 0
-7 -16 -35 -39 0
-7 -16 -35 -43 0
-7 -16 -39 -43 0
-7 -22 -29 -35 0
-7 -22 -29 -39 0
-7 -22 -29 -43 0
-7 -22 -35 -39 0
-7 -22 -35 -43 0
-7 -22 -39 -43 0
-7 -29 -35 -39 0
-7 -29 -35 -43 0
-7 -29 -39 -43 0
-7 -35 -39 -43 0
-16 -22 -29 -35 0
-16 -22 -29 -39 0
-16 -22 -29 -43 0
-16 -22 -35 -39 0
-16 -22 -35 -43 0
-16 -22 -39 -43 0
-16 -29 -35 -39 0
-16 -29 -35 -43 0
-16 -29 -39 -43 0
-16 -35 -39 -43 0
-22 -29 -35 -39 0
-22 -29 -35 -43 0
-22 -29 -39 -43 0
-22 -35 -39 -43 0
-29 -35 -39 -43 0
-3 -8 -17 -23 0
-3 -8 -17 -30 0
-3 -8 -17 -36 0
-3 -8 -17 -40 0
-3 -8 -17 -44 0
-3 -8 -23 -30 0
-3 -8 -23 -36 0
-3 -8 -23 -40 0
-3 -8 -23 -44 0
-3 -8 -30 -36 0
-3 -8 -30 -40 0
-3 -8 -30 -44 0
-3 -8 -36 -40 0
-3 -8 -36 -44 0
-3 -8 -40 -44 0
-3 -17 -23 -30 0
-3 -17 -23 -36 0
-3 -17 -23 -40 0
-3 -17 -23 -44 0
-3 -17 -30 -36 0
-3 -17 -30 -40 0
-3 -17 -30 -44 0
-3 -17 -36 -40 0
-3 -17 -36 -44 0
-3 -17 -40 -44 0
-3 -23 -30 -36 0
-3 -23 -30 -40 0
-3 -23 -30 -44 0
-3 -23 -36 -40 0
-3 -23 -36 -44 0
-3 -23 -40 -44 0
-3 -30 -36 -40 0
-3 -30 -36 -44 0
-3 -30 -40 -44 0
-3 -36 -40 -44 0
-8 -17 -23 -30 0
-8 -17 -23 -36 0
-8 -17 -23 -40 0
-8 -17 -23 -44 0
-8 -17 -30 -36 0
-8 -17 -30 -40 0
-8 -17 -30 -44 0
-8 -17 -36 -40 0
-8 -17 -36 -44 0
-8 -17 -40 -44 0
-8 -23 -30 -36 0
-8 -23 -30 -40 0
-8 -23 -30 -44 0
-8 -23 -36 -40 0
-8 -23 -36 -44 0
-8 -23 -40 -44 0
-8 -30 -36 -40 0
-8 -30 -36 -44 0
-8 -30 -40 -44 0
-8 -36 -40 -44 0
-17 -23 -30 -36 0
-17 -23 -30 -40 0
-17 -23 -30 -44 0
-17 -23 -36 -40 0
-17 -23 -36 -44 0
-17 -23 -40 -44 0
-17 -30 -36 -40 0
-17 -30 -36 -44 0
-17 -30 -40 -44 0
-17 -36 -40 -44 0
-23 -30 -36 -40 0
-23 -30 -36 -44 0
-23 -30 -40 -44 0
-23 -36 -40 -44 0
-30 -36 -40 -44 0
-4 -9 -18 -24 0
-4 -9 -18 -25 0
-4 -9 -18 -31 0
-4 -9 -18 -41 0
-4 -9 -18 -45 0
-4 -9 -24 -25 0
-4 -9 -24 -31 0
-4 -9 -24 -41 0
-4 -9 -24 -45 0
-4 -9 -25 -31 0
-4 -9 -25 -41 0
-4 -9 -25 -45 0
-4 -9 -31 -41 0
-4 -9 -31 -45 0
-4 -9 -41 -45 0
-4 -18 -24 -25 0
-4 -18 -24 -31 0
-4 -18 -24 -41 0
-4 -18 -24 -45 0
-4 -18 -25 -31 0
-4 -18 -25 -41 0
-4 -18 -25 -45 0
-4 -18 -31 -41 0
-4 -18 -31 -45 0
-4 -18 -41 -45 0
-4 -24 -25 -31 0
-4 -24 -25 -41 0
-4 -24 -25 -45 0
-4 -24 -31 -41 0
-4 -24 -31 -45 0
-4 -24 -41 -45 0
-4 -25 -31 -41 0
-4 -25 -31 -45 0
-4 -25 -41 -45 0
-4 -31 -41 -45 0
-9 -18 -24 -25 0
-9 -18 -24 -31 0
-9 -18 -24 -41 0
-9 -18 -24 -45 0
-9 -18 -25 -31 0
-9 -18 -25 -41 0
-9 -18 -25 -45 0
-9 -18 -31 -41 0
-9 -18 -31 -45 0
-9 -18 -41 -45 0
-9 -24 -25 -31 0
-9 -24 -25 -41 0
-9 -24 -25 -45 0
-9 -24 -31 -41 0
-9 -24 -31 -45 0
-9 -24 -41 -45 0
-9 -25 -31 -41 0
-9 -25 -31 -45 0
-9 -25 -41 -45 0
-9 -31 -41 -45 0
-18 -24 -25 -31 0
-18 -24 -25 -41 0
-18 -24 -25 -45 0
-18 -24 -31 -41 0
-18 -24 -31 -45 0
-18 -24 -41 -45 0
-18 -25 -31 -41 0
-18 -25 -31 -45 0
-18 -25 -41 -45 0
-18 -31 -41 -45 0
-24 -25 -31 -41 0
-24 -25 -31 -45 0
-24 -25 -41 -45 0
-24 -31 -41 -45 0
-25 -31 -41 -45 0
-5 -10 -13 -19 0
-5 -10 -13 -26 0
-5 -10 -13 -32 0
-5 -10 -13 -42 0
-5 -10 -13 -46 0
-5 -10 -19 -26 0
-5 -10 -19 -32 0
-5 -10 -19 -42 0
-5 -10 -19 -46 0
-5 -10 -26 -32 0
-5 -10 -26 -42 0
-5 -10 -26 -46 0
-5 -10 -32 -42 0
-5 -10 -32 -46 0
-5 -10 -42 -46 0
-5 -13 -19 -26 0
-5 -13 -19 -32 0
-5 -13 -19 -42 0
-5 -13 -19 -46 0
-5 -13 -26 -32 0
-5 -13 -26 -42 0
-5 -13 -26 -46 0
-5 -13 -32 -42 0
-5 -13 -32 -46 0
-5 -13 -42 -46 0
-5 -19 -26 -32 0
-5 -19 -26 -42 0
-5 -19 -26 -46 0
-5 -19 -32 -42 0
-5 -19 -32 -46 0
-5 -19 -42 -46 0
-5 -26 -32 -42 0
-5 -26 -32 -46 0
-5 -26 -42 -46 0
-5 -32 -42 -46 0
-10 -13 -19 -26 0
-10 -13 -19 -32 0
-10 -13 -19 -42 0
-10 -13 -19 -46 0
-10 -13 -26 -32 0
-10 -13 -26 -42 0
-10 -13 -26 -46 0
-10 -13 -32 -42 0
-10 -13 -32 -46 0
-10 -13 -42 -46 0
-10 -19 -26 -32 0
-10 -19 -26 -42 0
-10 -19 -26 -46 0
-10 -19 -32 -42 0
-10 -19 -32 -46 0
-10 -19 -42 -46 0
-10 -26 -32 -42 0
-10 -26 -32 -46 0
-10 -26 -42 -46 0
-10 -32 -42 -46 0
-13 -19 -26 -32 0
-13 -19 -26 -42 0
-13 -19 -26 -46 0
-13 -19 -32 -42 0
-13 -19 -32 -46 0
-13 -19 -42 -46 0
-13 -26 -32 -42 0
-13 -26 -32 -46 0
-13 -26 -42 -46 0
-13 -32 -42 -46 0
-19 -26 -32 -42 0
-19 -26 -32 -46 0
-19 -26 -42 -46 0
-19 -32 -42 -46 0
-26 -32 -42 -46 0
-6 -11 -14 -20 0
-6 -11 -14 -27 0
-6 -11 -14 -33 0
-6 -11 -14 -37 0
-6 -11 -14 -47 0
-6 -11 -20 -27 0
-6 -11 -20 -33 0
-6 -11 -20 -37 0
-6 -11 -20 -47 0
-6 -11 -27 -33 0
-6 -11 -27 -37 0
-6 -11 -27 -47 0
-6 -11 -33 -37 0
-6 -11 -33 -47 0
-6 -11 -37 -47 0
-6 -14 -20 -27 0
-6 -14 -20 -33 0
-6 -14 -20 -37 0
-6 -14 -20 -47 0
-6 -14 -27 -33 0
-6 -14 -27 -37 0
-6 -14 -27 -47 0
-6 -14 -33 -37 0
-6 -14 -33 -47 0
-6 -14 -37 -47 0
-6 -20 -27 -33 0
-6 -20 -27 -37 0
-6 -20 -27 -47 0
-6 -20 -33 -37 0
-6 -20 -33 -47 0
-6 -20 -37 -47 0
-6 -27 -33 -37 0
-6 -27 -33 -47 0
-6 -27 -37 -47 0
-6 -33 -37 -47 0
-11 -14 -20 -27 0
-11 -14 -20 -33 0
-11 -14 -20 -37 0
-11 -14 -20 -47 0
-11 -14 -27 -33 0
-11 -14 -27 -37 0
-11 -14 -27 -47 0
-11 -14 -33 -37 0
-11 -14 -33 -47 0
-11 -14 -37 -47 0
-11 -20 -27 -33 0
-11 -20 -27 -37 0
-11 -20 -27 -47 0
-11 -20 -33 -37 0
-11 -20 -33 -47 0
-11 -20 -37 -47 0
-11 -27 -33 -37 0
-11 -27 -33 -47 0
-11 -27 -37 -47 0
-11 -33 -37 -47 0
-14 -20 -27 -33 0
-14 -20 -27 -37 0
-14 -20 -27 -47 0
-14 -20 -33 -37 0
-14 -20 -33 -47 0
-14 -20 -37 -47 0
-14 -27 -33 -37 0
-14 -27 -33 -47 0
-14 -27 -37 -47 0
-14 -33 -37 -47 0
-20 -27 -33 -37 0
-20 -27 -33 -47 0
-20 -27 -37 -47 0
-20 -33 -37 -47 0
-27 -33 -37 -47 0
-1 -10 -17 -20 0
-1 -10 -17 -26 0
-1 -10 -17 -31 0
-1 -10 -17 -42 0
-1 -10 -17 -43 0
-1 -10 -20 -26 0
-1 -10 -20 -31 0
-1 -10 -20 -42 0
-1 -10 -20 -43 0
-1 -10 -26 -31 0
-1 -10 -26 -42 0
-1 -10 -26 -43 0
-1 -10 -31 -42 0
-1 -10 -31 -43 0
-1 -10 -42 -43 0
-1 -17 -20 -26 0
-1 -17 -20 -31 0
-1 -17 -20 -42 0
-1 -17 -20 -43 0
-1 -17 -26 -31 0
-1 -17 -26 -42 0
-1 -17 -26 -43 0
-1 -17 -31 -42 0
-1 -17 -31 -43 0
-1 -17 -42 -43 0
-1 -20 -26 -31 0
-1 -20 -26 -42 0
-1 -20 -26 -43 0
-1 -20 -31 -42 0
-1 -20 -31 -43 0
-1 -20 -42 -43 0
-1 -26 -31 -42 0
-1 -26 -31 -43 0
-1 -26 -42 -43 0
-1 -31 -42 -43 0
-10 -17 -20 -26 0
-10 -17 -20 -31 0
-10 -17 -20 -42 0
-10 -17 -20 -43 0
-10 -17 -26 -31 0
-10 -17 -26 -42 0
-10 -17 -26 -43 0
-10 -17 -31 -42 0
-10 -17 -31 -43 0
-10 -17 -42 -43 0
-10 -20 -26 -31 0
-10 -20 -26 -42 0
-10 -20 -26 -43 0
-10 -20 -31 -42 0
-10 -20 -31 -43 0
-10 -20 -42 -43 0
-10 -26 -31 -42 0
-10 -26 -31 -43 0
-10 -26 -42 -43 0
-10 -31 -42 -43 0
-17 -20 -26 -31 0
-17 -20 -26 -42 0
-17 -20 -26 -43 0
-17 -20 -31 -42 0
-17 -20 -31 -43 0
-17 -20 -42 -43 0
-17 -26 -31 -42 0
-17 -26 -31 -43 0
-17 -26 -42 -43 0
-17 -31 -42 -43 0
-20 -26 -31 -42 0
-20 -26 -31 -43 0
-20 -26 -42 -43 0
-20 -31 -42 -43 0
-26 -31 -42 -43 0
-2 -11 -18 -23 0
-2 -11 -18 -27 0
-2 -11 -18 -32 0
-2 -11 -18 -37 0
-2 -11 -18 -44 0
-2 -11 -23 -27 0
-2 -11 -23 -32 0
-2 -11 -23 -37 0
-2 -11 -23 -44 0
-2 -11 -27 -32 0
-2 -11 -27 -37 0
-2 -11 -27 -44 0
-2 -11 -32 -37 0
-2 -11 -32 -44 0
-2 -11 -37 -44 0
-2 -18 -23 -27 0
-2 -18 -23 -32 0
-2 -18 -23 -37 0
-2 -18 -23 -44 0
-2 -18 -27 -32 0
-2 -18 -27 -37 0
-2 -18 -27 -44 0
-2 -18 -32 -37 0
-2 -18 -32 -44 0
-2 -18 -37 -44 0
-2 -23 -27 -32 0
-2 -23 -27 -37 0
-2 -23 -27 -44 0
-2 -23 -32 -37 0
-2 -23 -32 -44 0
-2 -23 -37 -44 0
-2 -27 -32 -37 0
-2 -27 -32 -44 0
-2 -27 -37 -44 0
-2 -32 -37 -44 0
-11 -18 -23 -27 0
-11 -18 -23 -32 0
-11 -18 -23 -37 0
-11 -18 -23 -44 0
-11 -18 -27 -32 0
-11 -18 -27 -37 0
-11 -18 -27 -44 0
-11 -18 -32 -37 0
-11 -18 -32 -44 0
-11 -18 -37 -44 0
-11 -23 -27 -32 0
-11 -23 -27 -37 0
-11 -23 -27 -44 0
-11 -23 -32 -37 0
-11 -23 -32 -44 0
-11 -23 -37 -44 0
-11 -27 -32 -37 0
-11 -27 -32 -44 0
-11 -27 -37 -44 0
-11 -32 -37 -44 0
-18 -23 -27 -32 0
-18 -23 -27 -37 0
-18 -23 -27 -44 0
-18 -23 -32 -37 0
-18 -23 -32 -44 0
-18 -23 -37 -44 0
-18 -27 -32 -37 0
-18 -27 -32 -44 0
-18 -27 -37 -44 0
-18 -32 -37 -44 0
-23 -27 -32 -37 0
-23 -27 -32 -44 0
-23 -27 -37 -44 0
-23 -32 -37 -44 0
-27 -32 -37 -44 0
-3 -12 -13 -22 0
-3 -12 -13 -28 0
-3 -12 -13 -33 0
-3 -12 -13 -38 0
-3 -12 -13 -45 0
-3 -12 -22 -28 0
-3 -12 -22 -33 0
-3 -12 -22 -38 0
-3 -12 -22 -45 0
-3 -12 -28 -33 0
-3 -12 -28 -38 0
-3 -12 -28 -45 0
-3 -12 -33 -38 0
-3 -12 -33 -45 0
-3 -12 -38 -45 0
-3 -13 -22 -28 0
-3 -13 -22 -33 0
-3 -13 -22 -38 0
-3 -13 -22 -45 0
-3 -13 -28 -33 0
-3 -13 -28 -38 0
-3 -13 -28 -45 0
-3 -13 -33 -38 0
-3 -13 -33 -45 0
-3 -13 -38 -45 0
-3 -22 -28 -33 0
-3 -22 -28 -38 0
-3 -22 -28 -45 0
-3 -22 -33 -38 0
-3 -22 -33 -45 0
-3 -22 -38 -45 0
-3 -28 -33 -38 0
-3 -28 -33 -45 0
-3 -28 -38 -45 0
-3 -33 -38 -45 0
-12 -13 -22 -28 0
-12 -13 -22 -33 0
-12 -13 -22 -38 0
-12 -13 -22 -45 0
-12 -13 -28 -33 0
-12 -13 -28 -38 0
-12 -13 -28 -45 0
-12 -13 -33 -38 0
-12 -13 -33 -45 0
-12 -13 -38 -45 0
-12 -22 -28 -33 0
-12 -22 -28 -38 0
-12 -22 -28 -45 0
-12 -22 -33 -38 0
-12 -22 -33 -45 0
-12 -22 -38 -45 0
-12 -28 -33 -38 0
-12 -28 -33 -45 0
-12 -28 -38 -45 0
-12 -33 -38 -45 0
-13 -22 -28 -33 0
-13 -22 -28 -38 0
-13 -22 -28 -45 0
-13 -22 -33 -38 0
-13 -22 -33 -45 0
-13 -22 -38 -45 0
-13 -28 -33 -38 0
-13 -28 -33 -45 0
-13 -28 -38 -45 0
-13 -33 -38 -45 0
-22 -28 -33 -38 0
-22 -28 -33 -45 0
-22 -28 -38 -45 0
-22 -33 -38 -45 0
-28 -33 -38 -45 0
-4 -7 -14 -23 0
-4 -7 -14 -29 0
-4 -7 -14 -34 0
-4 -7 -14 -39 0
-4 -7 -14 -46 0
-4 -7 -23 -29 0
-4 -7 -23 -34 0
-4 -7 -23 -39 0
-4 -7 -23 -46 0
-4 -7 -29 -34 0
-4 -7 -29 -39 0
-4 -7 -29 -46 0
-4 -7 -34 -39 0
-4 -7 -34 -46 0
-4 -7 -39 -46 0
-4 -14 -23 -29 0
-4 -14 -23 -34 0
-4 -14 -23 -39 0
-4 -14 -23 -46 0
-4 -14 -29 -34 0
-4 -14 -29 -39 0
-4 -14 -29 -46 0
-4 -14 -34 -39 0
-4 -14 -34 -46 0
-4 -14 -39 -46 0
-4 -23 -29 -34 0
-4 -23 -29 -39 0
-4 -23 -29 -46 0
-4 -23 -34 -39 0
-4 -23 -34 -46 0
-4 -23 -39 -46 0
-4 -29 -34 -39 0
-4 -29 -34 -46 0
-4 -29 -39 -46 0
-4 -34 -39 -46 0
-7 -14 -23 -29 0
-7 -14 -23 -34 0
-7 -14 -23 -39 0
-7 -14 -23 -46 0
-7 -14 -29 -34 0
-7 -14 -29 -39 0
-7 -14 -29 -46 0
-7 -14 -34 -39 0
-7 -14 -34 -46 0
-7 -14 -39 -46 0
-7 -23 -29 -34 0
-7 -23 -29 -39 0
-7 -23 -29 -46 0
-7 -23 -34 -39 0
-7 -23 -34 -46 0
-7 -23 -39 -46 0
-7 -29 -34 -39 0
-7 -29 -34 -46 0
-7 -29 -39 -46 0
-7 -34 -39 -46 0
-14 -23 -29 -34 0
-14 -23 -29 -39 0
-14 -23 -29 -46 0
-14 -23 -34 -39 0
-14 -23 -34 -46 0
-14 -23 -39 -46 0
-14 -29 -34 -39 0
-14 -29 -34 -46 0
-14 -29 -39 -46 0
-14 -34 -39 -46 0
-23 -29 -34 -39 0
-23 -29 -34 -46 0
-23 -29 -39 -46 0
-23 -34 -39 -46 0
-29 -34 -39 -46 0
-5 -8 -15 -24 0
-5 -8 -15 -30 0
-5 -8 -15 -35 0
-5 -8 -15 -40 0
-5 -8 -15 -47 0
-5 -8 -24 -30 0
-5 -8 -24 -35 0
-5 -8 -24 -40 0
-5 -8 -24 -47 0
-5 -8 -30 -35 0
-5 -8 -30 -40 0
-5 -8 -30 -47 0
-5 -8 -35 -40 0
-5 -8 -35 -47 0
-5 -8 -40 -47 0
-5 -15 -24 -30 0
-5 -15 -24 -35 0
-5 -15 -24 -40 0
-5 -15 -24 -47 0
-5 -15 -30 -35 0
-5 -15 -30 -40 0
-5 -15 -30 -47 0
-5 -15 -35 -40 0
-5 -15 -35 -47 0
-5 -15 -40 -47 0
-5 -24 -30 -35 0
-5 -24 -30 -40 0
-5 -24 -30 -47 0
-5 -24 -35 -40 0
-5 -24 -35 -47 0
-5 -24 -40 -47 0
-5 -30 -35 -40 0
-5 -30 -35 -47 0
-5 -30 -40 -47 0
-5 -35 -40 -47 0
-8 -15 -24 -30 0
-8 -15 -24 -35 0
-8 -15 -24 -40 0
-8 -15 -24 -47 0
-8 -15 -30 -35 0
-8 -15 -30 -40 0
-8 -15 -30 -47 0
-8 -15 -35 -40 0
-8 -15 -35 -47 0
-8 -15 -40 -47 0
-8 -24 -30 -35 0
-8 -24 -30 -40 0
-8 -24 -30 -47 0
-8 -24 -35 -40 0
-8 -24 -35 -47 0
-8 -24 -40 -47 0
-8 -30 -35 -40 0
-8 -30 -35 -47 0
-8 -30 -40 -47 0
-8 -35 -40 -47 0
-15 -24 -30 -35 0
-15 -24 -30 -40 0
-15 -24 -30 -47 0
-15 -24 -35 -40 0
-15 -24 -35 -47 0
-15 -24 -40 -47 0
-15 -30 -35 -40 0
-15 -30 -35 -47 0
-15 -30 -40 -47 0
-15 -35 -40 -47 0
-24 -30 -35 -40 0
-24 -30 -35 -47 0
-24 -30 -40 -47 0
-24 -35 -40 -47 0
-30 -35 -40 -47 0
-6 -9 -16 -19 0
-6 -9 -16 -25 0
-6 -9 -16 -35 0
-6 -9 -16 -41 0
-6 -9 -16 -48 0
-6 -9 -19 -25 0
-6 -9 -19 -35 0
-6 -9 -19 -41 0
-6 -9 -19 -48 0
-6 -9 -25 -35 0
-6 -9 -25 -41 0
-6 -9 -25 -48 0
-6 -9 -35 -41 0
-6 -9 -35 -48 0
-6 -9 -41 -48 0
-6 -16 -19 -25 0
-6 -16 -19 -35 0
-6 -16 -19 -41 0
-6 -16 -19 -48 0
-6 -16 -25 -35 0
-6 -16 -25 -41 0
-6 -16 -25 -48 0
-6 -16 -35 -41 0
-6 -16 -35 -48 0
-6 -16 -41 -48 0
-6 -19 -25 -35 0
-6 -19 -25 -41 0
-6 -19 -25 -48 0
-6 -19 -35 -41 0
-6 -19 -35 -48 0
-6 -19 -41 -48 0
-6 -25 -35 -41 0
-6 -25 -35 -48 0
-6 -25 -41 -48 0
-6 -35 -41 -48 0
-9 -16 -19 -25 0
-9 -16 -19 -35 0
-9 -16 -19 -41 0
-9 -16 -19 -48 0
-9 -16 -25 -35 0
-9 -16 -25 -41 0
-9 -16 -25 -48 0
-9 -16 -35 -41 0
-9 -16 -35 -48 0
-9 -16 -41 -48 0
-9 -19 -25 -35 0
-9 -19 -25 -41 0
-9 -19 -25 -48 0
-9 -19 -35 -41 0
-9 -19 -35 -48 0
-9 -19 -41 -48 0
-9 -25 -35 -41 0
-9 -25 -35 -48 0
-9 -25 -41 -48 0
-9 -35 -41 -48 0
-16 -19 -25 -35 0
-16 -19 -25 -41 0
-16 -19 -25 -48 0
-16 -19 -35 -41 0
-16 -19 -35 -48 0
-16 -19 -41 -48 0
-16 -25 -35 -41 0
-16 -25 -35 -48 0
-16 -25 -41 -48 0
-16 -35 -41 -48 0
-19 -25 -35 -41 0
-19 -25 -35 -48 0
-19 -25 -41 -48 0
-19 -35 -41 -48 0
-25 -35 -41 -48 0
-1 -11 -17 -24 0
-1 -11 -17 -25 0
-1 -11 -17 -34 0
-1 -11 -17 -37 0
-1 -11 -17 -48 0
-1 -11 -24 -25 0
-1 -11 -24 -34 0
-1 -11 -24 -37 0
-1 -11 -24 -48 0
-1 -11 -25 -34 0
-1 -11 -25 -37 0
-1 -11 -25 -48 0
-1 -11 -34 -37 0
-1 -11 -34 -48 0
-1 -11 -37 -48 0
-1 -17 -24 -25 0
-1 -17 -24 -34 0
-1 -17 -24 -37 0
-1 -17 -24 -48 0
-1 -17 -25 -34 0
-1 -17 -25 -37 0
-1 -17 -25 -48 0
-1 -17 -34 -37 0
-1 -17 -34 -48 0
-1 -17 -37 -48 0
-1 -24 -25 -34 0
-1 -24 -25 -37 0
-1 -24 -25 -48 0
-1 -24 -34 -37 0
-1 -24 -34 -48 0
-1 -24 -37 -48 0
-1 -25 -34 -37 0
-1 -25 -34 -48 0
-1 -25 -37 -48 0
-1 -34 -37 -48 0
-11 -17 -24 -25 0
-11 -17 -24 -34 0
-11 -17 -24 -37 0
-11 -17 -24 -48 0
-11 -17 -25 -34 0
-11 -17 -25 -37 0
-11 -17 -25 -48 0
-11 -17 -34 -37 0
-11 -17 -34 -48 0
-11 -17 -37 -48 0
-11 -24 -25 -34 0
-11 -24 -25 -37 0
-11 -24 -25 -48 0
-11 -24 -34 -37 0
-11 -24 -34 -48 0
-11 -24 -37 -48 0
-11 -25 -34 -37 0
-11 -25 -34 -48 0
-11 -25 -37 -48 0
-11 -34 -37 -48 0
-17 -24 -25 -34 0
-17 -24 -25 -37 0
-17 -24 -25 -48 0
-17 -24 -34 -37 0
-17 -24 -34 -48 0
-17 -24 -37 -48 0
-17 -25 -34 -37 0
-17 -25 -34 -48 0
-17 -25 -37 -48 0
-17 -34 -37 -48 0
-24 -25 -34 -37 0
-24 -25 -34 -48 0
-24 -25 -37 -48 0
-24 -34 -37 -48 0
-25 -34 -37 -48 0
-2 -12 -18 -19 0
-2 -12 -18 -26 0
-2 -12 -18 -35 0
-2 -12 -18 -38 0
-2 -12 -18 -43 0
-2 -12 -19 -26 0
-2 -12 -19 -35 0
-2 -12 -19 -38 0
-2 -12 -19 -43 0
-2 -12 -26 -35 0
-2 -12 -26 -38 0
-2 -12 -26 -43 0
-2 -12 -35 -38 0
-2 -12 -35 -43 0
-2 -12 -38 -43 0
-2 -18 -19 -26 0
-2 -18 -19 -35 0
-2 -18 -19 -38 0
-2 -18 -19 -43 0
-2 -18 -26 -35 0
-2 -18 -26 -38 0
-2 -18 -26 -43 0
-2 -18 -35 -38 0
-2 -18 -35 -43 0
-2 -18 -38 -43 0
-2 -19 -26 -35 0
-2 -19 -26 -38 0
-2 -19 -26 -43 0
-2 -19 -35 -38 0
-2 -19 -35 -43 0
-2 -19 -38 -43 0
-2 -26 -35 -38 0
-2 -26 -35 -43 0
-2 -26 -38 -43 0
-2 -35 -38 -43 0
-12 -18 -19 -26 0
-12 -18 -19 -35 0
-12 -18 -19 -38 0
-12 -18 -19 -43 0
-12 -18 -26 -35 0
-12 -18 -26 -38 0
-12 -18 -26 -43 0
-12 -18 -35 -38 0
-12 -18 -35 -43 0
-12 -18 -38 -43 0
-12 -19 -26 -35 0
-12 -19 -26 -38 0
-12 -19 -26 -43 0
-12 -19 -35 -38 0
-12 -19 -35 -43 0
-12 -19 -38 -43 0
-12 -26 -35 -38 0
-12 -26 -35 -43 0
-12 -26 -38 -43 0
-12 -35 -38 -43 0
-18 -19 -26 -35 0
-18 -19 -26 -38 0
-18 -19 -26 -43 0
-18 -19 -35 -38 0
-18 -19 -35 -43 0
-18 -19 -38 -43 0
-18 -26 -35 -38 0
-18 -26 -35 -43 0
-18 -26 -38 -43 0
-18 -35 -38 -43 0
-19 -26 -35 -38 0
-19 -26 -35 -43 0
-19 -26 -38 -43 0
-19 -35 -38 -43 0
-26 -35 -38 -43 0
-3 -7 -13 -20 0
-3 -7 -13 -27 0
-3 -7 -13 -36 0
-3 -7 -13 -39 0
-3 -7 -13 -44 0
-3 -7 -20 -27 0
-3 -7 -20 -36 0
-3 -7 -20 -39 0
-3 -7 -20 -44 0
-3 -7 -27 -36 0
-3 -7 -27 -39 0
-3 -7 -27 -44 0
-3 -7 -36 -39 0
-3 -7 -36 -44 0
-3 -7 -39 -44 0
-3 -13 -20 -27 0
-3 -13 -20 -36 0
-3 -13 -20 -39 0
-3 -13 -20 -44 0
-3 -13 -27 -36 0
-3 -13 -27 -39 0
-3 -13 -27 -44 0
-3 -13 -36 -39 0
-3 -13 -36 -44 0
-3 -13 -39 -44 0
-3 -20 -27 -36 0
-3 -20 -27 -39 0
-3 -20 -27 -44 0
-3 -20 -36 -39 0
-3 -20 -36 -44 0
-3 -20 -39 -44 0
-3 -27 -36 -39 0
-3 -27 -36 -44 0
-3 -27 -39 -44 0
-3 -36 -39 -44 0
-7 -13 -20 -27 0
-7 -13 -20 -36 0
-7 -13 -20 -39 0
-7 -13 -20 -44 0
-7 -13 -27 -36 0
-7 -13 -27 -39 0
-7 -13 -27 -44 0
-7 -13 -36 -39 0
-7 -13 -36 -44 0
-7 -13 -39 -44 0
-7 -20 -27 -36 0
-7 -20 -27 -39 0
-7 -20 -27 -44 0
-7 -20 -36 -39 0
-7 -20 -36 -44 0
-7 -20 -39 -44 0
-7 -27 -36 -39 0
-7 -27 -36 -44 0
-7 -27 -39 -44 0
-7 -36 -39 -44 0
-13 -20 -27 -36 0
-13 -20 -27 -39 0
-13 -20 -27 -44 0
-13 -20 -36 -39 0
-13 -20 -36 -44 0
-13 -20 -39 -44 0
-13 -27 -36 -39 0
-13 -27 -36 -44 0
-13 -27 -39 -44 0
-13 -36 -39 -44 0
-20 -27 -36 -39 0
-20 -27 -36 -44 0
-20 -27 -39 -44 0
-20 -36 -39 -44 0
-27 -36 -39 -44 0
-4 -8 -14 -21 0
-4 -8 -14 -28 0
-4 -8 -14 -31 0
-4 -8 -14 -40 0
-4 -8 -14 -45 0
-4 -8 -21 -28 0
-4 -8 -21 -31 0
-4 -8 -21 -40 0
-4 -8 -21 -45 0
-4 -8 -28 -31 0
-4 -8 -28 -40 0
-4 -8 -28 -45 0
-4 -8 -31 -40 0
-4 -8 -31 -45 0
-4 -8 -40 -45 0
-4 -14 -21 -28 0
-4 -14 -21 -31 0
-4 -14 -21 -40 0
-4 -14 -21 -45 0
-4 -14 -28 -31 0
-4 -14 -28 -40 0
-4 -14 -28 -45 0
-4 -14 -31 -40 0
-4 -14 -31 -45 0
-4 -14 -40 -45 0
-4 -21 -28 -31 0
-4 -21 -28 -40 0
-4 -21 -28 -45 0
-4 -21 -31 -40 0
-4 -21 -31 -45 0
-4 -21 -40 -45 0
-4 -28 -31 -40 0
-4 -28 -31 -45 0
-4 -28 -40 -45 0
-4 -31 -40 -45 0
-8 -14 -21 -28 0
-8 -14 -21 -31 0
-8 -14 -21 -40 0
-8 -14 -21 -45 0
-8 -14 -28 -31 0
-8 -14 -28 -40 0
-8 -14 -28 -45 0
-8 -14 -31 -40 0
-8 -14 -31 -45 0
-8 -14 -40 -45 0
-8 -21 -28 -31 0
-8 -21 -28 -40 0
-8 -21 -28 -45 0
-8 -21 -31 -40 0
-8 -21 -31 -45 0
-8 -21 -40 -45 0
-8 -28 -31 -40 0
-8 -28 -31 -45 0
-8 -28 -40 -45 0
-8 -31 -40 -45 0
-14 -21 -28 -31 0
-14 -21 -28 -40 0
-14 -21 -28 -45 0
-14 -21 -31 -40 0
-14 -21 -31 -45 0
-14 -21 -40 -45 0
-14 -28 -31 -40 0
-14 -28 -31 -45 0
-14 -28 -40 -45 0
-14 -31 -40 -45 0
-21 -28 -31 -40 0
-21 -28 -31 -45 0
-21 -28 -40 -45 0
-21 -31 -40 -45 0
-28 -31 -40 -45 0
-5 -9 -15 -22 0
-5 -9 -15 -29 0
-5 -9 -15 -32 0
-5 -9 -15 -41 0
-5 -9 -15 -46 0
-5 -9 -22 -29 0
-5 -9 -22 -32 0
-5 -9 -22 -41 0
-5 -9 -22 -46 0
-5 -9 -29 -32 0
-5 -9 -29 -41 0
-5 -9 -29 -46 0
-5 -9 -32 -41 0
-5 -9 -32 -46 0
-5 -9 -41 -46 0
-5 -15 -22 -29 0
-5 -15 -22 -32 0
-5 -15 -22 -41 0
-5 -15 -22 -46 0
-5 -15 -29 -32 0
-5 -15 -29 -41 0
-5 -15 -29 -46 0
-5 -15 -32 -41 0
-5 -15 -32 -46 0
-5 -15 -41 -46 0
-5 -22 -29 -32 0
-5 -22 -29 -41 0
-5 -22 -29 -46 0
-5 -22 -32 -41 0
-5 -22 -32 -46 0
-5 -22 -41 -46 0
-5 -29 -32 -41 0
-5 -29 -32 -46 0
-5 -29 -41 -46 0
-5 -32 -41 -46 0
-9 -15 -22 -29 0
-9 -15 -22 -32 0
-9 -15 -22 -41 0
-9 -15 -22 -46 0
-9 -15 -29 -32 0
-9 -15 -29 -41 0
-9 -15 -29 -46 0
-9 -15 -32 -41 0
-9 -15 -32 -46 0
-9 -15 -41 -46 0
-9 -22 -29 -32 0
-9 -22 -29 -41 0
-9 -22 -29 -46 0
-9 -22 -32 -41 0
-9 -22 -32 -46 0
-9 -22 -41 -46 0
-9 -29 -32 -41 0
-9 -29 -32 -46 0
-9 -29 -41 -46 0
-9 -32 -41 -46 0
-15 -22 -29 -32 0
-15 -22 -29 -41 0
-15 -22 -29 -46 0
-15 -22 -32 -41 0
-15 -22 -32 -46 0
-15 -22 -41 -46 0
-15 -29 -32 -41 0
-15 -29 -32 -46 0
-15 -29 -41 -46 0
-15 -32 -41 -46 0
-22 -29 -32 -41 0
-22 -29 -32 -46 0
-22 -29 -41 -46 0
-22 -32 -41 -46 0
-29 -32 -41 -46 0
-6 -10 -16 -23 0
-6 -10 -16 -30 0
-6 -10 -16 -33 0
-6 -10 -16 -42 0
-6 -10 -16 -47 0
-6 -10 -23 -30 0
-6 -10 -23 -33 0
-6 -10 -23 -42 0
-6 -10 -23 -47 0
-6 -10 -30 -33 0
-6 -10 -30 -42 0
-6 -10 -30 -47 0
-6 -10 -33 -42 0
-6 -10 -33 -47 0
-6 -10 -42 -47 0
-6 -16 -23 -30 0
-6 -16 -23 -33 0
-6 -16 -23 -42 0
-6 -16 -23 -47 0
-6 -16 -30 -33 0
-6 -16 -30 -42 0
-6 -16 -30 -47 0
-6 -16 -33 -42 0
-6 -16 -33 -47 0
-6 -16 -42 -47 0
-6 -23 -30 -33 0
-6 -23 -30 -42 0
-6 -23 -30 -47 0
-6 -23 -33 -42 0
-6 -23 -33 -47 0
-6 -23 -42 -47 0
-6 -30 -33 -42 0
-6 -30 -33 -47 0
-6 -30 -42 -47 0
-6 -33 -42 -47 0
-10 -16 -23 -30 0
-10 -16 -23 -33 0
-10 -16 -23 -42 0
-10 -16 -23 -47 0
-10 -16 -30 -33 0
-10 -16 -30 -42 0
-10 -16 -30 -47 0
-10 -16 -33 -42 0
-10 -16 -33 -47 0
-10 -16 -42 -47 0
-10 -23 -30 -33 0
-10 -23 -30 -42 0
-10 -23 -30 -47 0
-10 -23 -33 -42 0
-10 -23 -33 -47 0
-10 -23 -42 -47 0
-10 -30 -33 -42 0
-10 -30 -33 -47 0
-10 -30 -42 -47 0
-10 -33 -42 -47 0
-16 -23 -30 -33 0
-16 -23 -30 -42 0
-16 -23 -30 -47 0
-16 -23 -33 -42 0
-16 -23 -33 -47 0
-16 -23 -42 -47 0
-16 -30 -33 -42 0
-16 -30 -33 -47 0
-16 -30 -42 -47 0
-16 -33 -42 -47 0
-23 -30 -33 -42 0
-23 -30 -33 -47 0
-23 -30 -42 -47 0
-23 -33 -42 -47 0
-30 -33 -42 -47 0
-1 -7 -13 -24 0
-1 -7 -13 -27 0
-1 -7 -13 -35 0
-1 -7 -13 -38 0
-1 -7 -13 -46 0
-1 -7 -24 -27 0
-1 -7 -24 -35 0
-1 -7 -24 -38 0
-1 -7 -24 -46 0
-1 -7 -27 -35 0
-1 -7 -27 -38 0
-1 -7 -27 -46 0
-1 -7 -35 -38 0
-1 -7 -35 -46 0
-1 -7 -38 -46 0
-1 -13 -24 -27 0
-1 -13 -24 -35 0
-1 -13 -24 -38 0
-1 -13 -24 -46 0
-1 -13 -27 -35 0
-1 -13 -27 -38 0
-1 -13 -27 -46 0
-1 -13 -35 -38 0
-1 -13 -35 -46 0
-1 -13 -38 -46 0
-1 -24 -27 -35 0
-1 -24 -27 -38 0
-1 -24 -27 -46 0
-1 -24 -35 -38 0
-1 -24 -35 -46 0
-1 -24 -38 -46 0
-1 -27 -35 -38 0
-1 -27 -35 -46 0
-1 -27 -38 -46 0
-1 -35 -38 -46 0
-7 -13 -24 -27 0
-7 -13 -24 -35 0
-7 -13 -24 -38 0
-7 -13 -24 -46 0
-7 -13 -27 -35 0
-7 -13 -27 -38 0
-7 -13 -27 -46 0
-7 -13 -35 -38 0
-7 -13 -35 -46 0
-7 -13 -38 -46 0
-7 -24 -27 -35 0
-7 -24 -27 -38 0
-7 -24 -27 -46 0
-7 -24 -35 -38 0
-7 -24 -35 -46 0
-7 -24 -38 -46 0
-7 -27 -35 -38 0
-7 -27 -35 -46 0
-7 -27 -38 -46 0
-7 -35 -38 -46 0
-13 -24 -27 -35 0
-13 -24 -27 -38 0
-13 -24 -27 -46 0
-13 -24 -35 -38 0
-13 -24 -35 -46 0
-13 -24 -38 -46 0
-13 -27 -35 -38 0
-13 -27 -35 -46 0
-13 -27 -38 -46 0
-13 -35 -38 -46 0
-24 -27 -35 -38 0
-24 -27 -35 -46 0
-24 -27 -38 -46 0
-24 -35 -38 -46 0
-27 -35 -38 -46 0
-2 -8 -14 -19 0
-2 -8 -14 -28 0
-2 -8 -14 -36 0
-2 -8 -14 -39 0
-2 -8 -14 -47 0
-2 -8 -19 -28 0
-2 -8 -19 -36 0
-2 -8 -19 -39 0
-2 -8 -19 -47 0
-2 -8 -28 -36 0
-2 -8 -28 -39 0
-2 -8 -28 -47 0
-2 -8 -36 -39 0
-2 -8 -36 -47 0
-2 -8 -39 -47 0
-2 -14 -19 -28 0
-2 -14 -19 -36 0
-2 -14 -19 -39 0
-2 -14 -19 -47 0
-2 -14 -28 -36 0
-2 -14 -28 -39 0
-2 -14 -28 -47 0
-2 -14 -36 -39 0
-2 -14 -36 -47 0
-2 -14 -39 -47 0
-2 -19 -28 -36 0
-2 -19 -28 -39 0
-2 -19 -28 -47 0
-2 -19 -36 -39 0
-2 -19 -36 -47 0
-2 -19 -39 -47 0
-2 -28 -36 -39 0
-2 -28 -36 -47 0
-2 -28 -39 -47 0
-2 -36 -39 -47 0
-8 -14 -19 -28 0
-8 -14 -19 -36 0
-8 -14 -19 -39 0
-8 -14 -19 -47 0
-8 -14 -28 -36 0
-8 -14 -28 -39 0
-8 -14 -28 -47 0
-8 -14 -36 -39 0
-8 -14 -36 -47 0
-8 -14 -39 -47 0
-8 -19 -28 -36 0
-8 -19 -28 -39 0
-8 -19 -28 -47 0
-8 -19 -36 -39 0
-8 -19 -36 -47 0
-8 -19 -39 -47 0
-8 -28 -36 -39 0
-8 -28 -36 -47 0
-8 -28 -39 -47 0
-8 -36 -39 -47 0
-14 -19 -28 -36 0
-14 -19 -28 -39 0
-14 -19 -28 -47 0
-14 -19 -36 -39 0
-14 -19 -36 -47 0
-14 -19 -39 -47 0
-14 -28 -36 -39 0
-14 -28 -36 -47 0
-14 -28 -39 -47 0
-14 -36 -39 -47 0
-19 -28 -36 -39 0
-19 -28 -36 -47 0
-19 -28 -39 -47 0
-19 -36 -39 -47 0
-28 -36 -39 -47 0
-3 -9 -15 -20 0
-3 -9 -15 -29 0
-3 -9 -15 -31 0
-3 -9 -15 -40 0
-3 -9 -15 -48 0
-3 -9 -20 -29 0
-3 -9 -20 -31 0
-3 -9 -20 -40 0
-3 -9 -20 -48 0
-3 -9 -29 -31 0
-3 -9 -29 -40 0
-3 -9 -29 -48 0
-3 -9 -31 -40 0
-3 -9 -31 -48 0
-3 -9 -40 -48 0
-3 -15 -20 -29 0
-3 -15 -20 -31 0
-3 -15 -20 -40 0
-3 -15 -20 -48 0
-3 -15 -29 -31 0
-3 -15 -29 -40 0
-3 -15 -29 -48 0
-3 -15 -31 -40 0
-3 -15 -31 -48 0
-3 -15 -40 -48 0
-3 -20 -29 -31 0
-3 -20 -29 -40 0
-3 -20 -29 -48 0
-3 -20 -31 -40 0
-3 -20 -31 -48 0
-3 -20 -40 -48 0
-3 -29 -31 -40 0
-3 -29 -31 -48 0
-3 -29 -40 -48 0
-3 -31 -40 -48 0
-9 -15 -20 -29 0
-9 -15 -20 -31 0
-9 -15 -20 -40 0
-9 -15 -20 -48 0
-9 -15 -29 -31 0
-9 -15 -29 -40 0
-9 -15 -29 -48 0
-9 -15 -31 -40 0
-9 -15 -31 -48 0
-9 -15 -40 -48 0
-9 -20 -29 -31 0
-9 -20 -29 -40 0
-9 -20 -29 -48 0
-9 -20 -31 -40 0
-9 -20 -31 -48 0
-9 -20 -40 -48 0
-9 -29 -31 -40 0
-9 -29 -31 -48 0
-9 -29 -40 -48 0
-9 -31 -40 -48 0
-15 -20 -29 -31 0
-15 -20 -29 -40 0
-15 -20 -29 -48 0
-15 -20 -31 -40 0
-15 -20 -31 -48 0
-15 -20 -40 -48 0
-15 -29 -31 -40 0
-15 -29 -31 -48 0
-15 -29 -40 -48 0
-15 -31 -40 -48 0
-20 -29 -31 -40 0
-20 -29 -31 -48 0
-20 -29 -40 -48 0
-20 -31 -40 -48 0
-29 -31 -40 -48 0
-4 -10 -16 -21 0
-4 -10 -16 -29 0
-4 -10 -16 -32 0
-4 -10 -16 -41 0
-4 -10 -16 -43 0
-4 -10 -21 -29 0
-4 -10 -21 -32 0
-4 -10 -21 -41 0
-4 -10 -21 -43 0
-4 -10 -29 -32 0
-4 -10 -29 -41 0
-4 -10 -29 -43 0
-4 -10 -32 -41 0
-4 -10 -32 -43 0
-4 -10 -41 -43 0
-4 -16 -21 -29 0
-4 -16 -21 -32 0
-4 -16 -21 -41 0
-4 -16 -21 -43 0
-4 -16 -29 -32 0
-4 -16 -29 -41 0
-4 -16 -29 -43 0
-4 -16 -32 -41 0
-4 -16 -32 -43 0
-4 -16 -41 -43 0
-4 -21 -29 -32 0
-4 -21 -29 -41 0
-4 -21 -29 -43 0
-4 -21 -32 -41 0
-4 -21 -32 -43 0
-4 -21 -41 -43 0
-4 -29 -32 -41 0
-4 -29 -32 -43 0
-4 -29 -41 -43 0
-4 -32 -41 -43 0
-10 -16 -21 -29 0
-10 -16 -21 -32 0
-10 -16 -21 -41 0
-10 -16 -21 -43 0
-10 -16 -29 -32 0
-10 -16 -29 -41 0
-10 -16 -29 -43 0
-10 -16 -32 -41 0
-10 -16 -32 -43 0
-10 -16 -41 -43 0
-10 -21 -29 -32 0
-10 -21 -29 -41 0
-10 -21 -29 -43 0
-10 -21 -32 -41 0
-10 -21 -32 -43 0
-10 -21 -41 -43 0
-10 -29 -32 -41 0
-10 -29 -32 -43 0
-10 -29 -41 -43 0
-10 -32 -41 -43 0
-16 -21 -29 -32 0
-16 -21 -29 -41 0
-16 -21 -29 -43 0
-16 -21 -32 -41 0
-16 -21 -32 -43 0
-16 -21 -41 -43 0
-16 -29 -32 -41 0
-16 -29 -32 -43 0
-16 -29 -41 -43 0
-16 -32 -41 -43 0
-21 -29 -32 -41 0
-21 -29 -32 -43 0
-21 -29 -41 -43 0
-21 -32 -41 -43 0
-29 -32 -41 -43 0
-5 -11 -17 -22 0
-5 -11 -17 -25 0
-5 -11 -17 -33 0
-5 -11 -17 -42 0
-5 -11 -17 -44 0
-5 -11 -22 -25 0
-5 -11 -22 -33 0
-5 -11 -22 -42 0
-5 -11 -22 -44 0
-5 -11 -25 -33 0
-5 -11 -25 -42 0
-5 -11 -25 -44 0
-5 -11 -33 -42 0
-5 -11 -33 -44 0
-5 -11 -42 -44 0
-5 -17 -22 -25 0
-5 -17 -22 -33 0
-5 -17 -22 -42 0
-5 -17 -22 -44 0
-5 -17 -25 -33 0
-5 -17 -25 -42 0
-5 -17 -25 -44 0
-5 -17 -33 -42 0
-5 -17 -33 -44 0
-5 -17 -42 -44 0
-5 -22 -25 -33 0
-5 -22 -25 -42 0
-5 -22 -25 -44 0
-5 -22 -33 -42 0
-5 -22 -33 -44 0
-5 -22 -42 -44 0
-5 -25 -33 -42 0
-5 -25 -33 -44 0
-5 -25 -42 -44 0
-5 -33 -42 -44 0
-11 -17 -22 -25 0
-11 -17 -22 -33 0
-11 -17 -22 -42 0
-11 -17 -22 -44 0
-11 -17 -25 -33 0
-11 -17 -25 -42 0
-11 -17 -25 -44 0
-11 -17 -33 -42 0
-11 -17 -33 -44 0
-11 -17 -42 -44 0
-11 -22 -25 -33 0
-11 -22 -25 -42 0
-11 -22 -25 -44 0
-11 -22 -33 -42 0
-11 -22 -33 -44 0
-11 -22 -42 -44 0
-11 -25 -33 -42 0
-11 -25 -33 -44 0
-11 -25 -42 -44 0
-11 -33 -42 -44 0
-17 -22 -25 -33 0
-17 -22 -25 -42 0
-17 -22 -25 -44 0
-17 -22 -33 -42 0
-17 -22 -33 -44 0
-17 -22 -42 -44 0
-17 -25 -33 -42 0
-17 -25 -33 -44 0
-17 -25 -42 -44 0
-17 -33 -42 -44 0
-22 -25 -33 -42 0
-22 -25 -33 -44 0
-22 -25 -42 -44 0
-22 -33 -42 -44 0
-25 -33 -42 -44 0
-6 -12 -18 -23 0
-6 -12 -18 -26 0
-6 -12 -18 -34 0
-6 -12 -18 -37 0
-6 -12 -18 -45 0
-6 -12 -23 -26 0
-6 -12 -23 -34 0
-6 -12 -23 -37 0
-6 -12 -23 -45 0
-6 -12 -26 -34 0
-6 -12 -26 -37 0
-6 -12 -26 -45 0
-6 -12 -34 -37 0
-6 -12 -34 -45 0
-6 -12 -37 -45 0
-6 -18 -23 -26 0
-6 -18 -23 -34 0
-6 -18 -23 -37 0
-6 -18 -23 -45 0
-6 -18 -26 -34 0
-6 -18 -26 -37 0
-6 -18 -26 -45 0
-6 -18 -34 -37 0
-6 -18 -34 -45 0
-6 -18 -37 -45 0
-6 -23 -26 -34 0
-6 -23 -26 -37 0
-6 -23 -26 -45 0
-6 -23 -34 -37 0
-6 -23 -34 -45 0
-6 -23 -37 -45 0
-6 -26 -34 -37 0
-6 -26 -34 -45 0
-6 -26 -37 -45 0
-6 -34 -37 -45 0
-12 -18 -23 -26 0
-12 -18 -23 -34 0
-12 -18 -23 -37 0
-12 -18 -23 -45 0
-12 -18 -26 -34 0
-12 -18 -26 -37 0
-12 -18 -26 -45 0
-12 -18 -34 -37 0
-12 -18 -34 -45 0
-12 -18 -37 -45 0
-12 -23 -26 -34 0
-12 -23 -26 -37 0
-12 -23 -26 -45 0
-12 -23 -34 -37 0
-12 -23 -34 -45 0
-12 -23 -37 -45 0
-12 -26 -34 -37 0
-12 -26 -34 -45 0
-12 -26 -37 -45 0
-12 -34 -37 -45 0
-18 -23 -26 -34 0
-18 -23 -26 -37 0
-18 -23 -26 -45 0
-18 -23 -34 -37 0
-18 -23 -34 -45 0
-18 -23 -37 -45 0
-18 -26 -34 -37 0
-18 -26 -34 -45 0
-18 -26 -37 -45 0
-18 -34 -37 -45 0
-23 -26 -34 -37 0
-23 -26 -34 -45 0
-23 -26 -37 -45 0
-23 -34 -37 -45 0
-26 -34 -37 -45 0
-1 -9 -14 -20 0
-1 -9 -14 -30 0
-1 -9 -14 -31 0
-1 -9 -14 -38 0
-1 -9 -14 -45 0
-1 -9 -20 -30 0
-1 -9 -20 -31 0
-1 -9 -20 -38 0
-1 -9 -20 -45 0
-1 -9 -30 -31 0
-1 -9 -30 -38 0
-1 -9 -30 -45 0
-1 -9 -31 -38 0
-1 -9 -31 -45 0
-1 -9 -38 -45 0
-1 -14 -20 -30 0
-1 -14 -20 -31 0
-1 -14 -20 -38 0
-1 -14 -20 -45 0
-1 -14 -30 -31 0
-1 -14 -30 -38 0
-1 -14 -30 -45 0
-1 -14 -31 -38 0
-1 -14 -31 -45 0
-1 -14 -38 -45 0
-1 -20 -30 -31 0
-1 -20 -30 -38 0
-1 -20 -30 -45 0
-1 -20 -31 -38 0
-1 -20 -31 -45 0
-1 -20 -38 -45 0
-1 -30 -31 -38 0
-1 -30 -31 -45 0
-1 -30 -38 -45 0
-1 -31 -38 -45 0
-9 -14 -20 -30 0
-9 -14 -20 -31 0
-9 -14 -20 -38 0
-9 -14 -20 -45 0
-9 -14 -30 -31 0
-9 -14 -30 -38 0
-9 -14 -30 -45 0
-9 -14 -31 -38 0
-9 -14 -31 -45 0
-9 -14 -38 -45 0
-9 -20 -30 -31 0
-9 -20 -30 -38 0
-9 -20 -30 -45 0
-9 -20 -31 -38 0
-9 -20 -31 -45 0
-9 -20 -38 -45 0
-9 -30 -31 -38 0
-9 -30 -31 -45 0
-9 -30 -38 -45 0
-9 -31 -38 -45 0
-14 -20 -30 -31 0
-14 -20 -30 -38 0
-14 -20 -30 -45 0
-14 -20 -31 -38 0
-14 -20 -31 -45 0
-14 -20 -38 -45 0
-14 -30 -31 -38 0
-14 -30 -31 -45 0
-14 -30 -38 -45 0
-14 -31 -38 -45 0
-20 -30 -31 -38 0
-20 -30 -31 -45 0
-20 -30 -38 -45 0
-20 -31 -38 -45 0
-30 -31 -38 -45 0
-2 -10 -15 -21 0
-2 -10 -15 -25 0
-2 -10 -15 -32 0
-2 -10 -15 -39 0
-2 -10 -15 -46 0
-2 -10 -21 -25 0
-2 -10 -21 -32 0
-2 -10 -21 -39 0
-2 -10 -21 -46 0
-2 -10 -25 -32 0
-2 -10 -25 -39 0
-2 -10 -25 -46 0
-2 -10 -32 -39 0
-2 -10 -32 -46 0
-2 -10 -39 -46 0
-2 -15 -21 -25 0
-2 -15 -21 -32 0
-2 -15 -21 -39 0
-2 -15 -21 -46 0
-2 -15 -25 -32 0
-2 -15 -25 -39 0
-2 -15 -25 -46 0
-2 -15 -32 -39 0
-2 -15 -32 -46 0
-2 -15 -39 -46 0
-2 -21 -25 -32 0
-2 -21 -25 -39 0
-2 -21 -25 -46 0
-2 -21 -32 -39 0
-2 -21 -32 -46 0
-2 -21 -39 -46 0
-2 -25 -32 -39 0
-2 -25 -32 -46 0
-2 -25 -39 -46 0
-2 -32 -39 -46 0
-10 -15 -21 -25 0
-10 -15 -21 -32 0
-10 -15 -21 -39 0
-10 -15 -21 -46 0
-10 -15 -25 -32 0
-10 -15 -25 -39 0
-10 -15 -25 -46 0
-10 -15 -32 -39 0
-10 -15 -32 -46 0
-10 -15 -39 -46 0
-10 -21 -25 -32 0
-10 -21 -25 -39 0
-10 -21 -25 -46 0
-10 -21 -32 -39 0
-10 -21 -32 -46 0
-10 -21 -39 -46 0
-10 -25 -32 -39 0
-10 -25 -32 -46 0
-10 -25 -39 -46 0
-10 -32 -39 -46 0
-15 -21 -25 -32 0
-15 -21 -25 -39 0
-15 -21 -25 -46 0
-15 -21 -32 -39 0
-15 -21 -32 -46 0
-15 -21 -39 -46 0
-15 -25 -32 -39 0
-15 -25 -32 -46 0
-15 -25 -39 -46 0
-15 -32 -39 -46 0
-21 -25 -32 -39 0
-21 -25 -32 -46 0
-21 -25 -39 -46 0
-21 -32 -39 -46 0
-25 -32 -39 -46 0
-3 -11 -16 -22 0
-3 -11 -16 -26 0
-3 -11 -16 -33 0
-3 -11 -16 -40 0
-3 -11 -16 -47 0
-3 -11 -22 -26 0
-3 -11 -22 -33 0
-3 -11 -22 -40 0
-3 -11 -22 -47 0
-3 -11 -26 -33 0
-3 -11 -26 -40 0
-3 -11 -26 -47 0
-3 -11 -33 -40 0
-3 -11 -33 -47 0
-3 -11 -40 -47 0
-3 -16 -22 -26 0
-3 -16 -22 -33 0
-3 -16 -22 -40 0
-3 -16 -22 -47 0
-3 -16 -26 -33 0
-3 -16 -26 -40 0
-3 -16 -26 -47 0
-3 -16 -33 -40 0
-3 -16 -33 -47 0
-3 -16 -40 -47 0
-3 -22 -26 -33 0
-3 -22 -26 -40 0
-3 -22 -26 -47 0
-3 -22 -33 -40 0
-3 -22 -33 -47 0
-3 -22 -40 -47 0
-3 -26 -33 -40 0
-3 -26 -33 -47 0
-3 -26 -40 -47 0
-3 -33 -40 -47 0
-11 -16 -22 -26 0
-11 -16 -22 -33 0
-11 -16 -22 -40 0
-11 -16 -22 -47 0
-11 -16 -26 -33 0
-11 -16 -26 -40 0
-11 -16 -26 -47 0
-11 -16 -33 -40 0
-11 -16 -33 -47 0
-11 -16 -40 -47 0
-11 -22 -26 -33 0
-11 -22 -26 -40 0
-11 -22 -26 -47 0
-11 -22 -33 -40 0
-11 -22 -33 -47 0
-11 -22 -40 -47 0
-11 -26 -33 -40 0
-11 -26 -33 -47 0
-11 -26 -40 -47 0
-11 -33 -40 -47 0
-16 -22 -26 -33 0
-16 -22 -26 -40 0
-16 -22 -26 -47 0
-16 -22 -33 -40 0
-16 -22 -33 -47 0
-16 -22 -40 -47 0
-16 -26 -33 -40 0
-16 -26 -33 -47 0
-16 -26 -40 -47 0
-16 -33 -40 -47 0
-22 -26 -33 -40 0
-22 -26 -33 -47 0
-22 -26 -40 -47 0
-22 -33 -40 -47 0
-26 -33 -40 -47 0
-4 -12 -17 -23 0
-4 -12 -17 -27 0
-4 -12 -17 -34 0
-4 -12 -17 -41 0
-4 -12 -17 -48 0
-4 -12 -23 -27 0
-4 -12 -23 -34 0
-4 -12 -23 -41 0
-4 -12 -23 -48 0
-4 -12 -27 -34 0
-4 -12 -27 -41 0
-4 -12 -27 -48 0
-4 -12 -34 -41 0
-4 -12 -34 -48 0
-4 -12 -41 -48 0
-4 -17 -23 -27 0
-4 -17 -23 -34 0
-4 -17 -23 -41 0
-4 -17 -23 -48 0
-4 -17 -27 -34 0
-4 -17 -27 -41 0
-4 -17 -27 -48 0
-4 -17 -34 -41 0
-4 -17 -34 -48 0
-4 -17 -41 -48 0
-4 -23 -27 -34 0
-4 -23 -27 -41 0
-4 -23 -27 -48 0
-4 -23 -34 -41 0
-4 -23 -34 -48 0
-4 -23 -41 -48 0
-4 -27 -34 -41 0
-4 -27 -34 -48 0
-4 -27 -41 -48 0
-4 -34 -41 -48 0
-12 -17 -23 -27 0
-12 -17 -23 -34 0
-12 -17 -23 -41 0
-12 -17 -23 -48 0
-12 -17 -27 -34 0
-12 -17 -27 -41 0
-12 -17 -27 -48 0
-12 -17 -34 -41 0
-12 -17 -34 -48 0
-12 -17 -41 -48 0
-12 -23 -27 -34 0
-12 -23 -27 -41 0
-12 -23 -27 -48 0
-12 -23 -34 -41 0
-12 -23 -34 -48 0
-12 -23 -41 -48 0
-12 -27 -34 -41 0
-12 -27 -34 -48 0
-12 -27 -41 -48 0
-12 -34 -41 -48 0
-17 -23 -27 -34 0
-17 -23 -27 -41 0
-17 -23 -27 -48 0
-17 -23 -34 -41 0
-17 -23 -34 -48 0
-17 -23 -41 -48 0
-17 -27 -34 -41 0
-17 -27 -34 -48 0
-17 -27 -41 -48 0
-17 -34 -41 -48 0
-23 -27 -34 -41 0
-23 -27 -34 -48 0
-23 -27 -41 -48 0
-23 -34 -41 -48 0
-27 -34 -41 -48 0
-5 -7 -18 -24 0
-5 -7 -18 -28 0
-5 -7 -18 -35 0
-5 -7 -18 -42 0
-5 -7 -18 -43 0
-5 -7 -24 -28 0
-5 -7 -24 -35 0
-5 -7 -24 -42 0
-5 -7 -24 -43 0
-5 -7 -28 -35 0
-5 -7 -28 -42 0
-5 -7 -28 -43 0
-5 -7 -35 -42 0
-5 -7 -35 -43 0
-5 -7 -42 -43 0
-5 -18 -24 -28 0
-5 -18 -24 -35 0
-5 -18 -24 -42 0
-5 -18 -24 -43 0
-5 -18 -28 -35 0
-5 -18 -28 -42 0
-5 -18 -28 -43 0
-5 -18 -35 -42 0
-5 -18 -35 -43 0
-5 -18 -42 -43 0
-5 -24 -28 -35 0
-5 -24 -28 -42 0
-5 -24 -28 -43 0
-5 -24 -35 -42 0
-5 -24 -35 -43 0
-5 -24 -42 -43 0
-5 -28 -35 -42 0
-5 -28 -35 -43 0
-5 -28 -42 -43 0
-5 -35 -42 -43 0
-7 -18 -24 -28 0
-7 -18 -24 -35 0
-7 -18 -24 -42 0
-7 -18 -24 -43 0
-7 -18 -28 -35 0
-7 -18 -28 -42 0
-7 -18 -28 -43 0
-7 -18 -35 -42 0
-7 -18 -35 -43 0
-7 -18 -42 -43 0
-7 -24 -28 -35 0
-7 -24 -28 -42 0
-7 -24 -28 -43 0
-7 -24 -35 -42 0
-7 -24 -35 -43 0
-7 -24 -42 -43 0
-7 -28 -35 -42 0
-7 -28 -35 -43 0
-7 -28 -42 -43 0
-7 -35 -42 -43 0
-18 -24 -28 -35 0
-18 -24 -28 -42 0
-18 -24 -28 -43 0
-18 -24 -35 -42 0
-18 -24 -35 -43 0
-18 -24 -42 -43 0
-18 -28 -35 -42 0
-18 -28 -35 -43 0
-18 -28 -42 -43 0
-18 -35 -42 -43 0
-24 -28 -35 -42 0
-24 -28 -35 -43 0
-24 -28 -42 -43 0
-24 -35 -42 -43 0
-28 -35 -42 -43 0
-6 -8 -13 -19 0
-6 -8 -13 -29 0
-6 -8 -13 -36 0
-6 -8 -13 -37 0
-6 -8 -13 -44 0
-6 -8 -19 -29 0
-6 -8 -19 -36 0
-6 -8 -19 -37 0
-6 -8 -19 -44 0
-6 -8 -29 -36 0
-6 -8 -29 -37 0
-6 -8 -29 -44 0
-6 -8 -36 -37 0
-6 -8 -36 -44 0
-6 -8 -37 -44 0
-6 -13 -19 -29 0
-6 -13 -19 -36 0
-6 -13 -19 -37 0
-6 -13 -19 -44 0
-6 -13 -29 -36 0
-6 -13 -29 -37 0
-6 -13 -29 -44 0
-6 -13 -36 -37 0
-6 -13 -36 -44 0
-6 -13 -37 -44 0
-6 -19 -29 -36 0
-6 -19 -29 -37 0
-6 -19 -29 -44 0
-6 -19 -36 -37 0
-6 -19 -36 -44 0
-6 -19 -37 -44 0
-6 -29 -36 -37 0
-6 -29 -36 -44 0
-6 -29 -37 -44 0
-6 -36 -37 -44 0
-8 -13 -19 -29 0
-8 -13 -19 -36 0
-8 -13 -19 -37 0
-8 -13 -19 -44 0
-8 -13 -29 -36 0
-8 -13 -29 -37 0
-8 -13 -29 -44 0
-8 -13 -36 -37 0
-8 -13 -36 -44 0
-8 -13 -37 -44 0
-8 -19 -29 -36 0
-8 -19 -29 -37 0
-8 -19 -29 -44 0
-8 -19 -36 -37 0
-8 -19 -36 -44 0
-8 -19 -37 -44 0
-8 -29 -36 -37 0
-8 -29 -36 -44 0
-8 -29 -37 -44 0
-8 -36 -37 -44 0
-13 -19 -29 -36 0
-13 -19 -29 -37 0
-13 -19 -29 -44 0
-13 -19 -36 -37 0
-13 -19 -36 -44 0
-13 -19 -37 -44 0
-13 -29 -36 -37 0
-13 -29 -36 -44 0
-13 -29 -37 -44 0
-13 -36 -37 -44 0
-19 -29 -36 -37 0
-19 -29 -36 -44 0
-19 -29 -37 -44 0
-19 -36 -37 -44 0
-29 -36 -37 -44 0
-1 -8 -13 -21 0
-1 -8 -13 -29 0
-1 -8 -13 -34 0
-1 -8 -13 -38 0
-1 -8 -13 -47 0
-1 -8 -21 -29 0
-1 -8 -21 -34 0
-1 -8 -21 -38 0
-1 -8 -21 -47 0
-1 -8 -29 -34 0
-1 -8 -29 -38 0
-1 -8 -29 -47 0
-1 -8 -34 -38 0
-1 -8 -34 -47 0
-1 -8 -38 -47 0
-1 -13 -21 -29 0
-1 -13 -21 -34 0
-1 -13 -21 -38 0
-1 -13 -21 -47 0
-1 -13 -29 -34 0
-1 -13 -29 -38 0
-1 -13 -29 -47 0
-1 -13 -34 -38 0
-1 -13 -34 -47 0
-1 -13 -38 -47 0
-1 -21 -29 -34 0
-1 -21 -29 -38 0
-1 -21 -29 -47 0
-1 -21 -34 -38 0
-1 -21 -34 -47 0
-1 -21 -38 -47 0
-1 -29 -34 -38 0
-1 -29 -34 -47 0
-1 -29 -38 -47 0
-1 -34 -38 -47 0
-8 -13 -21 -29 0
-8 -13 -21 -34 0
-8 -13 -21 -38 0
-8 -13 -21 -47 0
-8 -13 -29 -34 0
-8 -13 -29 -38 0
-8 -13 -29 -47 0
-8 -13 -34 -38 0
-8 -13 -34 -47 0
-8 -13 -38 -47 0
-8 -21 -29 -34 0
-8 -21 -29 -38 0
-8 -21 -29 -47 0
-8 -21 -34 -38 0
-8 -21 -34 -47 0
-8 -21 -38 -47 0
-8 -29 -34 -38 0
-8 -29 -34 -47 0
-8 -29 -38 -47 0
-8 -34 -38 -47 0
-13 -21 -29 -34 0
-13 -21 -29 -38 0
-13 -21 -29 -47 0
-13 -21 -34 -38 0
-13 -21 -34 -47 0
-13 -21 -38 -47 0
-13 -29 -34 -38 0
-13 -29 -34 -47 0
-13 -29 -38 -47 0
-13 -34 -38 -47 0
-21 -29 -34 -38 0
-21 -29 -34 -47 0
-21 -29 -38 -47 0
-21 -34 -38 -47 0
-29 -34 -38 -47 0
-2 -9 -14 -22 0
-2 -9 -14 -30 0
-2 -9 -14 -35 0
-2 -9 -14 -39 0
-2 -9 -14 -48 0
-2 -9 -22 -30 0
-2 -9 -22 -35 0
-2 -9 -22 -39 0
-2 -9 -22 -48 0
-2 -9 -30 -35 0
-2 -9 -30 -39 0
-2 -9 -30 -48 0
-2 -9 -35 -39 0
-2 -9 -35 -48 0
-2 -9 -39 -48 0
-2 -14 -22 -30 0
-2 -14 -22 -35 0
-2 -14 -22 -39 0
-2 -14 -22 -48 0
-2 -14 -30 -35 0
-2 -14 -30 -39 0
-2 -14 -30 -48 0
-2 -14 -35 -39 0
-2 -14 -35 -48 0
-2 -14 -39 -48 0
-2 -22 -30 -35 0
-2 -22 -30 -39 0
-2 -22 -30 -48 0
-2 -22 -35 -39 0
-2 -22 -35 -48 0
-2 -22 -39 -48 0
-2 -30 -35 -39 0
-2 -30 -35 -48 0
-2 -30 -39 -48 0
-2 -35 -39 -48 0
-9 -14 -22 -30 0
-9 -14 -22 -35 0
-9 -14 -22 -39 0
-9 -14 -22 -48 0
-9 -14 -30 -35 0
-9 -14 -30 -39 0
-9 -14 -30 -48 0
-9 -14 -35 -39 0
-9 -14 -35 -48 0
-9 -14 -39 -48 0
-9 -22 -30 -35 0
-9 -22 -30 -39 0
-9 -22 -30 -48 0
-9 -22 -35 -39 0
-9 -22 -35 -48 0
-9 -22 -39 -48 0
-9 -30 -35 -39 0
-9 -30 -35 -48 0
-9 -30 -39 -48 0
-9 -35 -39 -48 0
-14 -22 -30 -35 0
-14 -22 -30 -39 0
-14 -22 -30 -48 0
-14 -22 -35 -39 0
-14 -22 -35 -48 0
-14 -22 -39 -48 0
-14 -30 -35 -39 0
-14 -30 -35 -48 0
-14 -30 -39 -48 0
-14 -35 -39 -48 0
-22 -30 -35 -39 0
-22 -30 -35 -48 0
-22 -30 -39 -48 0
-22 -35 -39 -48 0
-30 -35 -39 -48 0
-3 -10 -15 -23 0
-3 -10 -15 -25 0
-3 -10 -15 -36 0
-3 -10 -15 -40 0
-3 -10 -15 -43 0
-3 -10 -23 -25 0
-3 -10 -23 -36 0
-3 -10 -23 -40 0
-3 -10 -23 -43 0
-3 -10 -25 -36 0
-3 -10 -25 -40 0
-3 -10 -25 -43 0
-3 -10 -36 -40 0
-3 -10 -36 -43 0
-3 -10 -40 -43 0
-3 -15 -23 -25 0
-3 -15 -23 -36 0
-3 -15 -23 -40 0
-3 -15 -23 -43 0
-3 -15 -25 -36 0
-3 -15 -25 -40 0
-3 -15 -25 -43 0
-3 -15 -36 -40 0
-3 -15 -36 -43 0
-3 -15 -40 -43 0
-3 -23 -25 -36 0
-3 -23 -25 -40 0
-3 -23 -25 -43 0
-3 -23 -36 -40 0
-3 -23 -36 -43 0
-3 -23 -40 -43 0
-3 -25 -36 -40 0
-3 -25 -36 -43 0
-3 -25 -40 -43 0
-3 -36 -40 -43 0
-10 -15 -23 -25 0
-10 -15 -23 -36 0
-10 -15 -23 -40 0
-10 -15 -23 -43 0
-10 -15 -25 -36 0
-10 -15 -25 -40 0
-10 -15 -25 -43 0
-10 -15 -36 -40 0
-10 -15 -36 -43 0
-10 -15 -40 -43 0
-10 -23 -25 -36 0
-10 -23 -25 -40 0
-10 -23 -25 -43 0
-10 -23 -36 -40 0
-10 -23 -36 -43 0
-10 -23 -40 -43 0
-10 -25 -36 -40 0
-10 -25 -36 -43 0
-10 -25 -40 -43 0
-10 -36 -40 -43 0
-15 -23 -25 -36 0
-15 -23 -25 -40 0
-15 -23 -25 -43 0
-15 -23 -36 -40 0
-15 -23 -36 -43 0
-15 -23 -40 -43 0
-15 -25 -36 -40 0
-15 -25 -36 -43 0
-15 -25 -40 -43 0
-15 -36 -40 -43 0
-23 -25 -36 -40 0
-23 -25 -36 -43 0
-23 -25 -40 -43 0
-23 -36 -40 -43 0
-25 -36 -40 -43 0
-4 -11 -16 -24 0
-4 -11 -16 -26 0
-4 -11 -16 -31 0
-4 -11 -16 -41 0
-4 -11 -16 -44 0
-4 -11 -24 -26 0
-4 -11 -24 -31 0
-4 -11 -24 -41 0
-4 -11 -24 -44 0
-4 -11 -26 -31 0
-4 -11 -26 -41 0
-4 -11 -26 -44 0
-4 -11 -31 -41 0
-4 -11 -31 -44 0
-4 -11 -41 -44 0
-4 -16 -24 -26 0
-4 -16 -24 -31 0
-4 -16 -24 -41 0
-4 -16 -24 -44 0
-4 -16 -26 -31 0
-4 -16 -26 -41 0
-4 -16 -26 -44 0
-4 -16 -31 -41 0
-4 -16 -31 -44 0
-4 -16 -41 -44 0
-4 -24 -26 -31 0
-4 -24 -26 -41 0
-4 -24 -26 -44 0
-4 -24 -31 -41 0
-4 -24 -31 -44 0
-4 -24 -41 -44 0
-4 -26 -31 -41 0
-4 -26 -31 -44 0
-4 -26 -41 -44 0
-4 -31 -41 -44 0
-11 -16 -24 -26 0
-11 -16 -24 -31 0
-11 -16 -24 -41 0
-11 -16 -24 -44 0
-11 -16 -26 -31 0
-11 -16 -26 -41 0
-11 -16 -26 -44 0
-11 -16 -31 -41 0
-11 -16 -31 -44 0
-11 -16 -41 -44 0
-11 -24 -26 -31 0
-11 -24 -26 -41 0
-11 -24 -26 -44 0
-11 -24 -31 -41 0
-11 -24 -31 -44 0
-11 -24 -41 -44 0
-11 -26 -31 -41 0
-11 -26 -31 -44 0
-11 -26 -41 -44 0
-11 -31 -41 -44 0
-16 -24 -26 -31 0
-16 -24 -26 -41 0
-16 -24 -26 -44 0
-16 -24 -31 -41 0
-16 -24 -31 -44 0
-16 -24 -41 -44 0
-16 -26 -31 -41 0
-16 -26 -31 -44 0
-16 -26 -41 -44 0
-16 -31 -41 -44 0
-24 -26 -31 -41 0
-24 -26 -31 -44 0
-24 -26 -41 -44 0
-24 -31 -41 -44 0
-26 -31 -41 -44 0
-5 -12 -17 -19 0
-5 -12 -17 -27 0
-5 -12 -17 -32 0
-5 -12 -17 -42 0
-5 -12 -17 -45 0
-5 -12 -19 -27 0
-5 -12 -19 -32 0
-5 -12 -19 -42 0
-5 -12 -19 -45 0
-5 -12 -27 -32 0
-5 -12 -27 -42 0
-5 -12 -27 -45 0
-5 -12 -32 -42 0
-5 -12 -32 -45 0
-5 -12 -42 -45 0
-5 -17 -19 -27 0
-5 -17 -19 -32 0
-5 -17 -19 -42 0
-5 -17 -19 -45 0
-5 -17 -27 -32 0
-5 -17 -27 -42 0
-5 -17 -27 -45 0
-5 -17 -32 -42 0
-5 -17 -32 -45 0
-5 -17 -42 -45 0
-5 -19 -27 -32 0
-5 -19 -27 -42 0
-5 -19 -27 -45 0
-5 -19 -32 -42 0
-5 -19 -32 -45 0
-5 -19 -42 -45 0
-5 -27 -32 -42 0
-5 -27 -32 -45 0
-5 -27 -42 -45 0
-5 -32 -42 -45 0
-12 -17 -19 -27 0
-12 -17 -19 -32 0
-12 -17 -19 -42 0
-12 -17 -19 -45 0
-12 -17 -27 -32 0
-12 -17 -27 -42 0
-12 -17 -27 -45 0
-12 -17 -32 -42 0
-12 -17 -32 -45 0
-12 -17 -42 -45 0
-12 -19 -27 -32 0
-12 -19 -27 -42 0
-12 -19 -27 -45 0
-12 -19 -32 -42 0
-12 -19 -32 -45 0
-12 -19 -42 -45 0
-12 -27 -32 -42 0
-12 -27 -32 -45 0
-12 -27 -42 -45 0
-12 -32 -42 -45 0
-17 -19 -27 -32 0
-17 -19 -27 -42 0
-17 -19 -27 -45 0
-17 -19 -32 -42 0
-17 -19 -32 -45 0
-17 -19 -42 -45 0
-17 -27 -32 -42 0
-17 -27 -32 -45 0
-17 -27 -42 -45 0
-17 -32 -42 -45 0
-19 -27 -32 -42 0
-19 -27 -32 -45 0
-19 -27 -42 -45 0
-19 -32 -42 -45 0
-27 -32 -42 -45 0
-6 -7 -18 -20 0
-6 -7 -18 -28 0
-6 -7 -18 -33 0
-6 -7 -18 -37 0
-6 -7 -18 -46 0
-6 -7 -20 -28 0
-6 -7 -20 -33 0
-6 -7 -20 -37 0
-6 -7 -20 -46 0
-6 -7 -28 -33 0
-6 -7 -28 -37 0
-6 -7 -28 -46 0
-6 -7 -33 -37 0
-6 -7 -33 -46 0
-6 -7 -37 -46 0
-6 -18 -20 -28 0
-6 -18 -20 -33 0
-6 -18 -20 -37 0
-6 -18 -20 -46 0
-6 -18 -28 -33 0
-6 -18 -28 -37 0
-6 -18 -28 -46 0
-6 -18 -33 -37 0
-6 -18 -33 -46 0
-6 -18 -37 -46 0
-6 -20 -28 -33 0
-6 -20 -28 -37 0
-6 -20 -28 -46 0
-6 -20 -33 -37 0
-6 -20 -33 -46 0
-6 -20 -37 -46 0
-6 -28 -33 -37 0
-6 -28 -33 -46 0
-6 -28 -37 -46 0
-6 -33 -37 -46 0
-7 -18 -20 -28 0
-7 -18 -20 -33 0
-7 -18 -20 -37 0
-7 -18 -20 -46 0
-7 -18 -28 -33 0
-7 -18 -28 -37 0
-7 -18 -28 -46 0
-7 -18 -33 -37 0
-7 -18 -33 -46 0
-7 -18 -37 -46 0
-7 -20 -28 -33 0
-7 -20 -28 -37 0
-7 -20 -28 -46 0
-7 -20 -33 -37 0
-7 -20 -33 -46 0
-7 -20 -37 -46 0
-7 -28 -33 -37 0
-7 -28 -33 -46 0
-7 -28 -37 -46 0
-7 -33 -37 -46 0
-18 -20 -28 -33 0
-18 -20 -28 -37 0
-18 -20 -28 -46 0
-18 -20 -33 -37 0
-18 -20 -33 -46 0
-18 -20 -37 -46 0
-18 -28 -33 -37 0
-18 -28 -33 -46 0
-18 -28 -37 -46 0
-18 -33 -37 -46 0
-20 -28 -33 -37 0
-20 -28 -33 -46 0
-20 -28 -37 -46 0
-20 -33 -37 -46 0
-28 -33 -37 -46 0
-1 -12 -16 -24 0
-1 -12 -16 -27 0
-1 -12 -16 -34 0
-1 -12 -16 -40 0
-1 -12 -16 -45 0
-1 -12 -24 -27 0
-1 -12 -24 -34 0
-1 -12 -24 -40 0
-1 -12 -24 -45 0
-1 -12 -27 -34 0
-1 -12 -27 -40 0
-1 -12 -27 -45 0
-1 -12 -34 -40 0
-1 -12 -34 -45 0
-1 -12 -40 -45 0
-1 -16 -24 -27 0
-1 -16 -24 -34 0
-1 -16 -24 -40 0
-1 -16 -24 -45 0
-1 -16 -27 -34 0
-1 -16 -27 -40 0
-1 -16 -27 -45 0
-1 -16 -34 -40 0
-1 -16 -34 -45 0
-1 -16 -40 -45 0
-1 -24 -27 -34 0
-1 -24 -27 -40 0
-1 -24 -27 -45 0
-1 -24 -34 -40 0
-1 -24 -34 -45 0
-1 -24 -40 -45 0
-1 -27 -34 -40 0
-1 -27 -34 -45 0
-1 -27 -40 -45 0
-1 -34 -40 -45 0
-12 -16 -24 -27 0
-12 -16 -24 -34 0
-12 -16 -24 -40 0
-12 -16 -24 -45 0
-12 -16 -27 -34 0
-12 -16 -27 -40 0
-12 -16 -27 -45 0
-12 -16 -34 -40 0
-12 -16 -34 -45 0
-12 -16 -40 -45 0
-12 -24 -27 -34 0
-12 -24 -27 -40 0
-12 -24 -27 -45 0
-12 -24 -34 -40 0
-12 -24 -34 -45 0
-12 -24 -40 -45 0
-12 -27 -34 -40 0
-12 -27 -34 -45 0
-12 -27 -40 -45 0
-12 -34 -40 -45 0
-16 -24 -27 -34 0
-16 -24 -27 -40 0
-16 -24 -27 -45 0
-16 -24 -34 -40 0
-16 -24 -34 -45 0
-16 -24 -40 -45 0
-16 -27 -34 -40 0
-16 -27 -34 -45 0
-16 -27 -40 -45 0
-16 -34 -40 -45 0
-24 -27 -34 -40 0
-24 -27 -34 -45 0
-24 -27 -40 -45 0
-24 -34 -40 -45 0
-27 -34 -40 -45 0
-2 -7 -17 -20 0
-2 -7 -17 -28 0
-2 -7 -17 -35 0
-2 -7 -17 -41 0
-2 -7 -17 -46 0
-2 -7 -20 -28 0
-2 -7 -20 -35 0
-2 -7 -20 -41 0
-2 -7 -20 -46 0
-2 -7 -28 -35 0
-2 -7 -28 -41 0
-2 -7 -28 -46 0
-2 -7 -35 -41 0
-2 -7 -35 -46 0
-2 -7 -41 -46 0
-2 -17 -20 -28 0
-2 -17 -20 -35 0
-2 -17 -20 -41 0
-2 -17 -20 -46 0
-2 -17 -28 -35 0
-2 -17 -28 -41 0
-2 -17 -28 -46 0
-2 -17 -35 -41 0
-2 -17 -35 -46 0
-2 -17 -41 -46 0
-2 -20 -28 -35 0
-2 -20 -28 -41 0
-2 -20 -28 -46 0
-2 -20 -35 -41 0
-2 -20 -35 -46 0
-2 -20 -41 -46 0
-2 -28 -35 -41 0
-2 -28 -35 -46 0
-2 -28 -41 -46 0
-2 -35 -41 -46 0
-7 -17 -20 -28 0
-7 -17 -20 -35 0
-7 -17 -20 -41 0
-7 -17 -20 -46 0
-7 -17 -28 -35 0
-7 -17 -28 -41 0
-7 -17 -28 -46 0
-7 -17 -35 -41 0
-7 -17 -35 -46 0
-7 -17 -41 -46 0
-7 -20 -28 -35 0
-7 -20 -28 -41 0
-7 -20 -28 -46 0
-7 -20 -35 -41 0
-7 -20 -35 -46 0
-7 -20 -41 -46 0
-7 -28 -35 -41 0
-7 -28 -35 -46 0
-7 -28 -41 -46 0
-7 -35 -41 -46 0
-17 -20 -28 -35 0
-17 -20 -28 -41 0
-17 -20 -28 -46 0
-17 -20 -35 -41 0
-17 -20 -35 -46 0
-17 -20 -41 -46 0
-17 -28 -35 -41 0
-17 -28 -35 -46 0
-17 -28 -41 -46 0
-17 -35 -41 -46 0
-20 -28 -35 -41 0
-20 -28 -35 -46 0
-20 -28 -41 -46 0
-20 -35 -41 -46 0
-28 -35 -41 -46 0
-3 -8 -18 -20 0
-3 -8 -18 -29 0
-3 -8 -18 -36 0
-3 -8 -18 -42 0
-3 -8 -18 -47 0
-3 -8 -20 -29 0
-3 -8 -20 -36 0
-3 -8 -20 -42 0
-3 -8 -20 -47 0
-3 -8 -29 -36 0
-3 -8 -29 -42 0
-3 -8 -29 -47 0
-3 -8 -36 -42 0
-3 -8 -36 -47 0
-3 -8 -42 -47 0
-3 -18 -20 -29 0
-3 -18 -20 -36 0
-3 -18 -20 -42 0
-3 -18 -20 -47 0
-3 -18 -29 -36 0
-3 -18 -29 -42 0
-3 -18 -29 -47 0
-3 -18 -36 -42 0
-3 -18 -36 -47 0
-3 -18 -42 -47 0
-3 -20 -29 -36 0
-3 -20 -29 -42 0
-3 -20 -29 -47 0
-3 -20 -36 -42 0
-3 -20 -36 -47 0
-3 -20 -42 -47 0
-3 -29 -36 -42 0
-3 -29 -36 -47 0
-3 -29 -42 -47 0
-3 -36 -42 -47 0
-8 -18 -20 -29 0
-8 -18 -20 -36 0
-8 -18 -20 -42 0
-8 -18 -20 -47 0
-8 -18 -29 -36 0
-8 -18 -29 -42 0
-8 -18 -29 -47 0
-8 -18 -36 -42 0
-8 -18 -36 -47 0
-8 -18 -42 -47 0
-8 -20 -29 -36 0
-8 -20 -29 -42 0
-8 -20 -29 -47 0
-8 -20 -36 -42 0
-8 -20 -36 -47 0
-8 -20 -42 -47 0
-8 -29 -36 -42 0
-8 -29 -36 -47 0
-8 -29 -42 -47 0
-8 -36 -42 -47 0
-18 -20 -29 -36 0
-18 -20 -29 -42 0
-18 -20 -29 -47 0
-18 -20 -36 -42 0
-18 -20 -36 -47 0
-18 -20 -42 -47 0
-18 -29 -36 -42 0
-18 -29 -36 -47 0
-18 -29 -42 -47 0
-18 -36 -42 -47 0
-20 -29 -36 -42 0
-20 -29 -36 -47 0
-20 -29 -42 -47 0
-20 -36 -42 -47 0
-29 -36 -42 -47 0
-6 -9 -13 -21 0
-6 -9 -13 -30 0
-6 -9 -13 -36 0
-6 -9 -13 -37 0
-6 -9 -13 -48 0
-6 -9 -21 -30 0
-6 -9 -21 -36 0
-6 -9 -21 -37 0
-6 -9 -21 -48 0
-6 -9 -30 -36 0
-6 -9 -30 -37 0
-6 -9 -30 -48 0
-6 -9 -36 -37 0
-6 -9 -36 -48 0
-6 -9 -37 -48 0
-6 -13 -21 -30 0
-6 -13 -21 -36 0
-6 -13 -21 -37 0
-6 -13 -21 -48 0
-6 -13 -30 -36 0
-6 -13 -30 -37 0
-6 -13 -30 -48 0
-6 -13 -36 -37 0
-6 -13 -36 -48 0
-6 -13 -37 -48 0
-6 -21 -30 -36 0
-6 -21 -30 -37 0
-6 -21 -30 -48 0
-6 -21 -36 -37 0
-6 -21 -36 -48 0
-6 -21 -37 -48 0
-6 -30 -36 -37 0
-6 -30 -36 -48 0
-6 -30 -37 -48 0
-6 -36 -37 -48 0
-9 -13 -21 -30 0
-9 -13 -21 -36 0
-9 -13 -21 -37 0
-9 -13 -21 -48 0
-9 -13 -30 -36 0
-9 -13 -30 -37 0
-9 -13 -30 -48 0
-9 -13 -36 -37 0
-9 -13 -36 -48 0
-9 -13 -37 -48 0
-9 -21 -30 -36 0
-9 -21 -30 -37 0
-9 -21 -30 -48 0
-9 -21 -36 -37 0
-9 -21 -36 -48 0
-9 -21 -37 -48 0
-9 -30 -36 -37 0
-9 -30 -36 -48 0
-9 -30 -37 -48 0
-9 -36 -37 -48 0
-13 -21 -30 -36 0
-13 -21 -30 -37 0
-13 -21 -30 -48 0
-13 -21 -36 -37 0
-13 -21 -36 -48 0
-13 -21 -37 -48 0
-13 -30 -36 -37 0
-13 -30 -36 -48 0
-13 -30 -37 -48 0
-13 -36 -37 -48 0
-21 -30 -36 -37 0
-21 -30 -36 -48 0
-21 -30 -37 -48 0
-21 -36 -37 -48 0
-30 -36 -37 -48 0
-5 -10 -14 -22 0
-5 -10 -14 -25 0
-5 -10 -14 -32 0
-5 -10 -14 -38 0
-5 -10 -14 -43 0
-5 -10 -22 -25 0
-5 -10 -22 -32 0
-5 -10 -22 -38 0
-5 -10 -22 -43 0
-5 -10 -25 -32 0
-5 -10 -25 -38 0
-5 -10 -25 -43 0
-5 -10 -32 -38 0
-5 -10 -32 -43 0
-5 -10 -38 -43 0
-5 -14 -22 -25 0
-5 -14 -22 -32 0
-5 -14 -22 -38 0
-5 -14 -22 -43 0
-5 -14 -25 -32 0
-5 -14 -25 -38 0
-5 -14 -25 -43 0
-5 -14 -32 -38 0
-5 -14 -32 -43 0
-5 -14 -38 -43 0
-5 -22 -25 -32 0
-5 -22 -25 -38 0
-5 -22 -25 -43 0
-5 -22 -32 -38 0
-5 -22 -32 -43 0
-5 -22 -38 -43 0
-5 -25 -32 -38 0
-5 -25 -32 -43 0
-5 -25 -38 -43 0
-5 -32 -38 -43 0
-10 -14 -22 -25 0
-10 -14 -22 -32 0
-10 -14 -22 -38 0
-10 -14 -22 -43 0
-10 -14 -25 -32 0
-10 -14 -25 -38 0
-10 -14 -25 -43 0
-10 -14 -32 -38 0
-10 -14 -32 -43 0
-10 -14 -38 -43 0
-10 -22 -25 -32 0
-10 -22 -25 -38 0
-10 -22 -25 -43 0
-10 -22 -32 -38 0
-10 -22 -32 -43 0
-10 -22 -38 -43 0
-10 -25 -32 -38 0
-10 -25 -32 -43 0
-10 -25 -38 -43 0
-10 -32 -38 -43 0
-14 -22 -25 -32 0
-14 -22 -25 -38 0
-14 -22 -25 -43 0
-14 -22 -32 -38 0
-14 -22 -32 -43 0
-14 -22 -38 -43 0
-14 -25 -32 -38 0
-14 -25 -32 -43 0
-14 -25 -38 -43 0
-14 -32 -38 -43 0
-22 -25 -32 -38 0
-22 -25 -32 -43 0
-22 -25 -38 -43 0
-22 -32 -38 -43 0
-25 -32 -38 -43 0
-6 -11 -15 -23 0
-6 -11 -15 -26 0
-6 -11 -15 -33 0
-6 -11 -15 -39 0
-6 -11 -15 -44 0
-6 -11 -23 -26 0
-6 -11 -23 -33 0
-6 -11 -23 -39 0
-6 -11 -23 -44 0
-6 -11 -26 -33 0
-6 -11 -26 -39 0
-6 -11 -26 -44 0
-6 -11 -33 -39 0
-6 -11 -33 -44 0
-6 -11 -39 -44 0
-6 -15 -23 -26 0
-6 -15 -23 -33 0
-6 -15 -23 -39 0
-6 -15 -23 -44 0
-6 -15 -26 -33 0
-6 -15 -26 -39 0
-6 -15 -26 -44 0
-6 -15 -33 -39 0
-6 -15 -33 -44 0
-6 -15 -39 -44 0
-6 -23 -26 -33 0
-6 -23 -26 -39 0
-6 -23 -26 -44 0
-6 -23 -33 -39 0
-6 -23 -33 -44 0
-6 -23 -39 -44 0
-6 -26 -33 -39 0
-6 -26 -33 -44 0
-6 -26 -39 -44 0
-6 -33 -39 -44 0
-11 -15 -23 -26 0
-11 -15 -23 -33 0
-11 -15 -23 -39 0
-11 -15 -23 -44 0
-11 -15 -26 -33 0
-11 -15 -26 -39 0
-11 -15 -26 -44 0
-11 -15 -33 -39 0
-11 -15 -33 -44 0
-11 -15 -39 -44 0
-11 -23 -26 -33 0
-11 -23 -26 -39 0
-11 -23 -26 -44 0
-11 -23 -33 -39 0
-11 -23 -33 -44 0
-11 -23 -39 -44 0
-11 -26 -33 -39 0
-11 -26 -33 -44 0
-11 -26 -39 -44 0
-11 -33 -39 -44 0
-15 -23 -26 -33 0
-15 -23 -26 -39 0
-15 -23 -26 -44 0
-15 -23 -33 -39 0
-15 -23 -33 -44 0
-15 -23 -39 -44 0
-15 -26 -33 -39 0
-15 -26 -33 -44 0
-15 -26 -39 -44 0
-15 -33 -39 -44 0
-23 -26 -33 -39 0
-23 -26 -33 -44 0
-23 -26 -39 -44 0
-23 -33 -39 -44 0
-26 -33 -39 -44 0
-1 -11 -15 -19 0
-1 -11 -15 -30 0
-1 -11 -15 -36 0
-1 -11 -15 -41 0
-1 -11 -15 -45 0
-1 -11 -19 -30 0
-1 -11 -19 -36 0
-1 -11 -19 -41 0
-1 -11 -19 -45 0
-1 -11 -30 -36 0
-1 -11 -30 -41 0
-1 -11 -30 -45 0
-1 -11 -36 -41 0
-1 -11 -36 -45 0
-1 -11 -41 -45 0
-1 -15 -19 -30 0
-1 -15 -19 -36 0
-1 -15 -19 -41 0
-1 -15 -19 -45 0
-1 -15 -30 -36 0
-1 -15 -30 -41 0
-1 -15 -30 -45 0
-1 -15 -36 -41 0
-1 -15 -36 -45 0
-1 -15 -41 -45 0
-1 -19 -30 -36 0
-1 -19 -30 -41 0
-1 -19 -30 -45 0
-1 -19 -36 -41 0
-1 -19 -36 -45 0
-1 -19 -41 -45 0
-1 -30 -36 -41 0
-1 -30 -36 -45 0
-1 -30 -41 -45 0
-1 -36 -41 -45 0
-11 -15 -19 -30 0
-11 -15 -19 -36 0
-11 -15 -19 -41 0
-11 -15 -19 -45 0
-11 -15 -30 -36 0
-11 -15 -30 -41 0
-11 -15 -30 -45 0
-11 -15 -36 -41 0
-11 -15 -36 -45 0
-11 -15 -41 -45 0
-11 -19 -30 -36 0
-11 -19 -30 -41 0
-11 -19 -30 -45 0
-11 -19 -36 -41 0
-11 -19 -36 -45 0
-11 -19 -41 -45 0
-11 -30 -36 -41 0
-11 -30 -36 -45 0
-11 -30 -41 -45 0
-11 -36 -41 -45 0
-15 -19 -30 -36 0
-15 -19 -30 -41 0
-15 -19 -30 -45 0
-15 -19 -36 -41 0
-15 -19 -36 -45 0
-15 -19 -41 -45 0
-15 -30 -36 -41 0
-15 -30 -36 -45 0
-15 -30 -41 -45 0
-15 -36 -41 -45 0
-19 -30 -36 -41 0
-19 -30 -36 -45 0
-19 -30 -41 -45 0
-19 -36 -41 -45 0
-30 -36 -41 -45 0
-2 -12 -16 -20 0
-2 -12 -16 -30 0
-2 -12 -16 -31 0
-2 -12 -16 -42 0
-2 -12 -16 -46 0
-2 -12 -20 -30 0
-2 -12 -20 -31 0
-2 -12 -20 -42 0
-2 -12 -20 -46 0
-2 -12 -30 -31 0
-2 -12 -30 -42 0
-2 -12 -30 -46 0
-2 -12 -31 -42 0
-2 -12 -31 -46 0
-2 -12 -42 -46 0
-2 -16 -20 -30 0
-2 -16 -20 -31 0
-2 -16 -20 -42 0
-2 -16 -20 -46 0
-2 -16 -30 -31 0
-2 -16 -30 -42 0
-2 -16 -30 -46 0
-2 -16 -31 -42 0
-2 -16 -31 -46 0
-2 -16 -42 -46 0
-2 -20 -30 -31 0
-2 -20 -30 -42 0
-2 -20 -30 -46 0
-2 -20 -31 -42 0
-2 -20 -31 -46 0
-2 -20 -42 -46 0
-2 -30 -31 -42 0
-2 -30 -31 -46 0
-2 -30 -42 -46 0
-2 -31 -42 -46 0
-12 -16 -20 -30 0
-12 -16 -20 -31 0
-12 -16 -20 -42 0
-12 -16 -20 -46 0
-12 -16 -30 -31 0
-12 -16 -30 -42 0
-12 -16 -30 -46 0
-12 -16 -31 -42 0
-12 -16 -31 -46 0
-12 -16 -42 -46 0
-12 -20 -30 -31 0
-12 -20 -30 -42 0
-12 -20 -30 -46 0
-12 -20 -31 -42 0
-12 -20 -31 -46 0
-12 -20 -42 -46 0
-12 -30 -31 -42 0
-12 -30 -31 -46 0
-12 -30 -42 -46 0
-12 -31 -42 -46 0
-16 -20 -30 -31 0
-16 -20 -30 -42 0
-16 -20 -30 -46 0
-16 -20 -31 -42 0
-16 -20 -31 -46 0
-16 -20 -42 -46 0
-16 -30 -31 -42 0
-16 -30 -31 -46 0
-16 -30 -42 -46 0
-16 -31 -42 -46 0
-20 -30 -31 -42 0
-20 -30 -31 -46 0
-20 -30 -42 -46 0
-20 -31 -42 -46 0
-30 -31 -42 -46 0
-3 -7 -17 -21 0
-3 -7 -17 -25 0
-3 -7 -17 -32 0
-3 -7 -17 -37 0
-3 -7 -17 -47 0
-3 -7 -21 -25 0
-3 -7 -21 -32 0
-3 -7 -21 -37 0
-3 -7 -21 -47 0
-3 -7 -25 -32 0
-3 -7 -25 -37 0
-3 -7 -25 -47 0
-3 -7 -32 -37 0
-3 -7 -32 -47 0
-3 -7 -37 -47 0
-3 -17 -21 -25 0
-3 -17 -21 -32 0
-3 -17 -21 -37 0
-3 -17 -21 -47 0
-3 -17 -25 -32 0
-3 -17 -25 -37 0
-3 -17 -25 -47 0
-3 -17 -32 -37 0
-3 -17 -32 -47 0
-3 -17 -37 -47 0
-3 -21 -25 -32 0
-3 -21 -25 -37 0
-3 -21 -25 -47 0
-3 -21 -32 -37 0
-3 -21 -32 -47 0
-3 -21 -37 -47 0
-3 -25 -32 -37 0
-3 -25 -32 -47 0
-3 -25 -37 -47 0
-3 -32 -37 -47 0
-7 -17 -21 -25 0
-7 -17 -21 -32 0
-7 -17 -21 -37 0
-7 -17 -21 -47 0
-7 -17 -25 -32 0
-7 -17 -25 -37 0
-7 -17 -25 -47 0
-7 -17 -32 -37 0
-7 -17 -32 -47 0
-7 -17 -37 -47 0
-7 -21 -25 -32 0
-7 -21 -25 -37 0
-7 -21 -25 -47 0
-7 -21 -32 -37 0
-7 -21 -32 -47 0
-7 -21 -37 -47 0
-7 -25 -32 -37 0
-7 -25 -32 -47 0
-7 -25 -37 -47 0
-7 -32 -37 -47 0
-17 -21 -25 -32 0
-17 -21 -25 -37 0
-17 -21 -25 -47 0
-17 -21 -32 -37 0
-17 -21 -32 -47 0
-17 -21 -37 -47 0
-17 -25 -32 -37 0
-17 -25 -32 -47 0
-17 -25 -37 -47 0
-17 -32 -37 -47 0
-21 -25 -32 -37 0
-21 -25 -32 -47 0
-21 -25 -37 -47 0
-21 -32 -37 -47 0
-25 -32 -37 -47 0
-4 -8 -18 -22 0
-4 -8 -18 -26 0
-4 -8 -18 -33 0
-4 -8 -18 -38 0
-4 -8 -18 -48 0
-4 -8 -22 -26 0
-4 -8 -22 -33 0
-4 -8 -22 -38 0
-4 -8 -22 -48 0
-4 -8 -26 -33 0
-4 -8 -26 -38 0
-4 -8 -26 -48 0
-4 -8 -33 -38 0
-4 -8 -33 -48 0
-4 -8 -38 -48 0
-4 -18 -22 -26 0
-4 -18 -22 -33 0
-4 -18 -22 -38 0
-4 -18 -22 -48 0
-4 -18 -26 -33 0
-4 -18 -26 -38 0
-4 -18 -26 -48 0
-4 -18 -33 -38 0
-4 -18 -33 -48 0
-4 -18 -38 -48 0
-4 -22 -26 -33 0
-4 -22 -26 -38 0
-4 -22 -26 -48 0
-4 -22 -33 -38 0
-4 -22 -33 -48 0
-4 -22 -38 -48 0
-4 -26 -33 -38 0
-4 -26 -33 -48 0
-4 -26 -38 -48 0
-4 -33 -38 -48 0
-8 -18 -22 -26 0
-8 -18 -22 -33 0
-8 -18 -22 -38 0
-8 -18 -22 -48 0
-8 -18 -26 -33 0
-8 -18 -26 -38 0
-8 -18 -26 -48 0
-8 -18 -33 -38 0
-8 -18 -33 -48 0
-8 -18 -38 -48 0
-8 -22 -26 -33 0
-8 -22 -26 -38 0
-8 -22 -26 -48 0
-8 -22 -33 -38 0
-8 -22 -33 -48 0
-8 -22 -38 -48 0
-8 -26 -33 -38 0
-8 -26 -33 -48 0
-8 -26 -38 -48 0
-8 -33 -38 -48 0
-18 -22 -26 -33 0
-18 -22 -26 -38 0
-18 -22 -26 -48 0
-18 -22 -33 -38 0
-18 -22 -33 -48 0
-18 -22 -38 -48 0
-18 -26 -33 -38 0
-18 -26 -33 -48 0
-18 -26 -38 -48 0
-18 -33 -38 -48 0
-22 -26 -33 -38 0
-22 -26 -33 -48 0
-22 -26 -38 -48 0
-22 -33 -38 -48 0
-26 -33 -38 -48 0
-5 -9 -13 -23 0
-5 -9 -13 -27 0
-5 -9 -13 -34 0
-5 -9 -13 -39 0
-5 -9 -13 -43 0
-5 -9 -23 -27 0
-5 -9 -23 -34 0
-5 -9 -23 -39 0
-5 -9 -23 -43 0
-5 -9 -27 -34 0
-5 -9 -27 -39 0
-5 -9 -27 -43 0
-5 -9 -34 -39 0
-5 -9 -34 -43 0
-5 -9 -39 -43 0
-5 -13 -23 -27 0
-5 -13 -23 -34 0
-5 -13 -23 -39 0
-5 -13 -23 -43 0
-5 -13 -27 -34 0
-5 -13 -27 -39 0
-5 -13 -27 -43 0
-5 -13 -34 -39 0
-5 -13 -34 -43 0
-5 -13 -39 -43 0
-5 -23 -27 -34 0
-5 -23 -27 -39 0
-5 -23 -27 -43 0
-5 -23 -34 -39 0
-5 -23 -34 -43 0
-5 -23 -39 -43 0
-5 -27 -34 -39 0
-5 -27 -34 -43 0
-5 -27 -39 -43 0
-5 -34 -39 -43 0
-9 -13 -23 -27 0
-9 -13 -23 -34 0
-9 -13 -23 -39 0
-9 -13 -23 -43 0
-9 -13 -27 -34 0
-9 -13 -27 -39 0
-9 -13 -27 -43 0
-9 -13 -34 -39 0
-9 -13 -34 -43 0
-9 -13 -39 -43 0
-9 -23 -27 -34 0
-9 -23 -27 -39 0
-9 -23 -27 -43 0
-9 -23 -34 -39 0
-9 -23 -34 -43 0
-9 -23 -39 -43 0
-9 -27 -34 -39 0
-9 -27 -34 -43 0
-9 -27 -39 -43 0
-9 -34 -39 -43 0
-13 -23 -27 -34 0
-13 -23 -27 -39 0
-13 -23 -27 -43 0
-13 -23 -34 -39 0
-13 -23 -34 -43 0
-13 -23 -39 -43 0
-13 -27 -34 -39 0
-13 -27 -34 -43 0
-13 -27 -39 -43 0
-13 -34 -39 -43 0
-23 -27 -34 -39 0
-23 -27 -34 -43 0
-23 -27 -39 -43 0
-23 -34 -39 -43 0
-27 -34 -39 -43 0
-6 -10 -14 -24 0
-6 -10 -14 -28 0
-6 -10 -14 -35 0
-6 -10 -14 -40 0
-6 -10 -14 -44 0
-6 -10 -24 -28 0
-6 -10 -24 -35 0
-6 -10 -24 -40 0
-6 -10 -24 -44 0
-6 -10 -28 -35 0
-6 -10 -28 -40 0
-6 -10 -28 -44 0
-6 -10 -35 -40 0
-6 -10 -35 -44 0
-6 -10 -40 -44 0
-6 -14 -24 -28 0
-6 -14 -24 -35 0
-6 -14 -24 -40 0
-6 -14 -24 -44 0
-6 -14 -28 -35 0
-6 -14 -28 -40 0
-6 -14 -28 -44 0
-6 -14 -35 -40 0
-6 -14 -35 -44 0
-6 -14 -40 -44 0
-6 -24 -28 -35 0
-6 -24 -28 -40 0
-6 -24 -28 -44 0
-6 -24 -35 -40 0
-6 -24 -35 -44 0
-6 -24 -40 -44 0
-6 -28 -35 -40 0
-6 -28 -35 -44 0
-6 -28 -40 -44 0
-6 -35 -40 -44 0
-10 -14 -24 -28 0
-10 -14 -24 -35 0
-10 -14 -24 -40 0
-10 -14 -24 -44 0
-10 -14 -28 -35 0
-10 -14 -28 -40 0
-10 -14 -28 -44 0
-10 -14 -35 -40 0
-10 -14 -35 -44 0
-10 -14 -40 -44 0
-10 -24 -28 -35 0
-10 -24 -28 -40 0
-10 -24 -28 -44 0
-10 -24 -35 -40 0
-10 -24 -35 -44 0
-10 -24 -40 -44 0
-10 -28 -35 -40 0
-10 -28 -35 -44 0
-10 -28 -40 -44 0
-10 -35 -40 -44 0
-14 -24 -28 -35 0
-14 -24 -28 -40 0
-14 -24 -28 -44 0
-14 -24 -35 -40 0
-14 -24 -35 -44 0
-14 -24 -40 -44 0
-14 -28 -35 -40 0
-14 -28 -35 -44 0
-14 -28 -40 -44 0
-14 -35 -40 -44 0
-24 -28 -35 -40 0
-24 -28 -35 -44 0
-24 -28 -40 -44 0
-24 -35 -40 -44 0
-28 -35 -40 -44 0
-1 -8 -15 -20 0
-1 -8 -15 -28 0
-1 -8 -15 -32 0
-1 -8 -15 -38 0
-1 -8 -15 -44 0
-1 -8 -20 -28 0
-1 -8 -20 -32 0
-1 -8 -20 -38 0
-1 -8 -20 -44 0
-1 -8 -28 -32 0
-1 -8 -28 -38 0
-1 -8 -28 -44 0
-1 -8 -32 -38 0
-1 -8 -32 -44 0
-1 -8 -38 -44 0
-1 -15 -20 -28 0
-1 -15 -20 -32 0
-1 -15 -20 -38 0
-1 -15 -20 -44 0
-1 -15 -28 -32 0
-1 -15 -28 -38 0
-1 -15 -28 -44 0
-1 -15 -32 -38 0
-1 -15 -32 -44 0
-1 -15 -38 -44 0
-1 -20 -28 -32 0
-1 -20 -28 -38 0
-1 -20 -28 -44 0
-1 -20 -32 -38 0
-1 -20 -32 -44 0
-1 -20 -38 -44 0
-1 -28 -32 -38 0
-1 -28 -32 -44 0
-1 -28 -38 -44 0
-1 -32 -38 -44 0
-8 -15 -20 -28 0
-8 -15 -20 -32 0
-8 -15 -20 -38 0
-8 -15 -20 -44 0
-8 -15 -28 -32 0
-8 -15 -28 -38 0
-8 -15 -28 -44 0
-8 -15 -32 -38 0
-8 -15 -32 -44 0
-8 -15 -38 -44 0
-8 -20 -28 -32 0
-8 -20 -28 -38 0
-8 -20 -28 -44 0
-8 -20 -32 -38 0
-8 -20 -32 -44 0
-8 -20 -38 -44 0
-8 -28 -32 -38 0
-8 -28 -32 -44 0
-8 -28 -38 -44 0
-8 -32 -38 -44 0
-15 -20 -28 -32 0
-15 -20 -28 -38 0
-15 -20 -28 -44 0
-15 -20 -32 -38 0
-15 -20 -32 -44 0
-15 -20 -38 -44 0
-15 -28 -32 -38 0
-15 -28 -32 -44 0
-15 -28 -38 -44 0
-15 -32 -38 -44 0
-20 -28 -32 -38 0
-20 -28 -32 -44 0
-20 -28 -38 -44 0
-20 -32 -38 -44 0
-28 -32 -38 -44 0
-2 -9 -16 -21 0
-2 -9 -16 -29 0
-2 -9 -16 -33 0
-2 -9 -16 -39 0
-2 -9 -16 -45 0
-2 -9 -21 -29 0
-2 -9 -21 -33 0
-2 -9 -21 -39 0
-2 -9 -21 -45 0
-2 -9 -29 -33 0
-2 -9 -29 -39 0
-2 -9 -29 -45 0
-2 -9 -33 -39 0
-2 -9 -33 -45 0
-2 -9 -39 -45 0
-2 -16 -21 -29 0
-2 -16 -21 -33 0
-2 -16 -21 -39 0
-2 -16 -21 -45 0
-2 -16 -29 -33 0
-2 -16 -29 -39 0
-2 -16 -29 -45 0
-2 -16 -33 -39 0
-2 -16 -33 -45 0
-2 -16 -39 -45 0
-2 -21 -29 -33 0
-2 -21 -29 -39 0
-2 -21 -29 -45 0
-2 -21 -33 -39 0
-2 -21 -33 -45 0
-2 -21 -39 -45 0
-2 -29 -33 -39 0
-2 -29 -33 -45 0
-2 -29 -39 -45 0
-2 -33 -39 -45 0
-9 -16 -21 -29 0
-9 -16 -21 -33 0
-9 -16 -21 -39 0
-9 -16 -21 -45 0
-9 -16 -29 -33 0
-9 -16 -29 -39 0
-9 -16 -29 -45 0
-9 -16 -33 -39 0
-9 -16 -33 -45 0
-9 -16 -39 -45 0
-9 -21 -29 -33 0
-9 -21 -29 -39 0
-9 -21 -29 -45 0
-9 -21 -33 -39 0
-9 -21 -33 -45 0
-9 -21 -39 -45 0
-9 -29 -33 -39 0
-9 -29 -33 -45 0
-9 -29 -39 -45 0
-9 -33 -39 -45 0
-16 -21 -29 -33 0
-16 -21 -29 -39 0
-16 -21 -29 -45 0
-16 -21 -33 -39 0
-16 -21 -33 -45 0
-16 -21 -39 -45 0
-16 -29 -33 -39 0
-16 -29 -33 -45 0
-16 -29 -39 -45 0
-16 -33 -39 -45 0
-21 -29 -33 -39 0
-21 -29 -33 -45 0
-21 -29 -39 -45 0
-21 -33 -39 -45 0
-29 -33 -39 -45 0
-3 -10 -17 -22 0
-3 -10 -17 -30 0
-3 -10 -17 -34 0
-3 -10 -17 -40 0
-3 -10 -17 -46 0
-3 -10 -22 -30 0
-3 -10 -22 -34 0
-3 -10 -22 -40 0
-3 -10 -22 -46 0
-3 -10 -30 -34 0
-3 -10 -30 -40 0
-3 -10 -30 -46 0
-3 -10 -34 -40 0
-3 -10 -34 -46 0
-3 -10 -40 -46 0
-3 -17 -22 -30 0
-3 -17 -22 -34 0
-3 -17 -22 -40 0
-3 -17 -22 -46 0
-3 -17 -30 -34 0
-3 -17 -30 -40 0
-3 -17 -30 -46 0
-3 -17 -34 -40 0
-3 -17 -34 -46 0
-3 -17 -40 -46 0
-3 -22 -30 -34 0
-3 -22 -30 -40 0
-3 -22 -30 -46 0
-3 -22 -34 -40 0
-3 -22 -34 -46 0
-3 -22 -40 -46 0
-3 -30 -34 -40 0
-3 -30 -34 -46 0
-3 -30 -40 -46 0
-3 -34 -40 -46 0
-10 -17 -22 -30 0
-10 -17 -22 -34 0
-10 -17 -22 -40 0
-10 -17 -22 -46 0
-10 -17 -30 -34 0
-10 -17 -30 -40 0
-10 -17 -30 -46 0
-10 -17 -34 -40 0
-10 -17 -34 -46 0
-10 -17 -40 -46 0
-10 -22 -30 -34 0
-10 -22 -30 -40 0
-10 -22 -30 -46 0
-10 -22 -34 -40 0
-10 -22 -34 -46 0
-10 -22 -40 -46 0
-10 -30 -34 -40 0
-10 -30 -34 -46 0
-10 -30 -40 -46 0
-10 -34 -40 -46 0
-17 -22 -30 -34 0
-17 -22 -30 -40 0
-17 -22 -30 -46 0
-17 -22 -34 -40 0
-17 -22 -34 -46 0
-17 -22 -40 -46 0
-17 -30 -34 -40 0
-17 -30 -34 -46 0
-17 -30 -40 -46 0
-17 -34 -40 -46 0
-22 -30 -34 -40 0
-22 -30 -34 -46 0
-22 -30 -40 -46 0
-22 -34 -40 -46 0
-30 -34 -40 -46 0
-4 -11 -18 -23 0
-4 -11 -18 -25 0
-4 -11 -18 -35 0
-4 -11 -18 -41 0
-4 -11 -18 -47 0
-4 -11 -23 -25 0
-4 -11 -23 -35 0
-4 -11 -23 -41 0
-4 -11 -23 -47 0
-4 -11 -25 -35 0
-4 -11 -25 -41 0
-4 -11 -25 -47 0
-4 -11 -35 -41 0
-4 -11 -35 -47 0
-4 -11 -41 -47 0
-4 -18 -23 -25 0
-4 -18 -23 -35 0
-4 -18 -23 -41 0
-4 -18 -23 -47 0
-4 -18 -25 -35 0
-4 -18 -25 -41 0
-4 -18 -25 -47 0
-4 -18 -35 -41 0
-4 -18 -35 -47 0
-4 -18 -41 -47 0
-4 -23 -25 -35 0
-4 -23 -25 -41 0
-4 -23 -25 -47 0
-4 -23 -35 -41 0
-4 -23 -35 -47 0
-4 -23 -41 -47 0
-4 -25 -35 -41 0
-4 -25 -35 -47 0
-4 -25 -41 -47 0
-4 -35 -41 -47 0
-11 -18 -23 -25 0
-11 -18 -23 -35 0
-11 -18 -23 -41 0
-11 -18 -23 -47 0
-11 -18 -25 -35 0
-11 -18 -25 -41 0
-11 -18 -25 -47 0
-11 -18 -35 -41 0
-11 -18 -35 -47 0
-11 -18 -41 -47 0
-11 -23 -25 -35 0
-11 -23 -25 -41 0
-11 -23 -25 -47 0
-11 -23 -35 -41 0
-11 -23 -35 -47 0
-11 -23 -41 -47 0
-11 -25 -35 -41 0
-11 -25 -35 -47 0
-11 -25 -41 -47 0
-11 -35 -41 -47 0
-18 -23 -25 -35 0
-18 -23 -25 -41 0
-18 -23 -25 -47 0
-18 -23 -35 -41 0
-18 -23 -35 -47 0
-18 -23 -41 -47 0
-18 -25 -35 -41 0
-18 -25 -35 -47 0
-18 -25 -41 -47 0
-18 -35 -41 -47 0
-23 -25 -35 -41 0
-23 -25 -35 -47 0
-23 -25 -41 -47 0
-23 -35 -41 -47 0
-25 -35 -41 -47 0
-5 -12 -13 -24 0
-5 -12 -13 -26 0
-5 -12 -13 -36 0
-5 -12 -13 -42 0
-5 -12 -13 -48 0
-5 -12 -24 -26 0
-5 -12 -24 -36 0
-5 -12 -24 -42 0
-5 -12 -24 -48 0
-5 -12 -26 -36 0
-5 -12 -26 -42 0
-5 -12 -26 -48 0
-5 -12 -36 -42 0
-5 -12 -36 -48 0
-5 -12 -42 -48 0
-5 -13 -24 -26 0
-5 -13 -24 -36 0
-5 -13 -24 -42 0
-5 -13 -24 -48 0
-5 -13 -26 -36 0
-5 -13 -26 -42 0
-5 -13 -26 -48 0
-5 -13 -36 -42 0
-5 -13 -36 -48 0
-5 -13 -42 -48 0
-5 -24 -26 -36 0
-5 -24 -26 -42 0
-5 -24 -26 -48 0
-5 -24 -36 -42 0
-5 -24 -36 -48 0
-5 -24 -42 -48 0
-5 -26 -36 -42 0
-5 -26 -36 -48 0
-5 -26 -42 -48 0
-5 -36 -42 -48 0
-12 -13 -24 -26 0
-12 -13 -24 -36 0
-12 -13 -24 -42 0
-12 -13 -24 -48 0
-12 -13 -26 -36 0
-12 -13 -26 -42 0
-12 -13 -26 -48 0
-12 -13 -36 -42 0
-12 -13 -36 -48 0
-12 -13 -42 -48 0
-12 -24 -26 -36 0
-12 -24 -26 -42 0
-12 -24 -26 -48 0
-12 -24 -36 -42 0
-12 -24 -36 -48 0
-12 -24 -42 -48 0
-12 -26 -36 -42 0
-12 -26 -36 -48 0
-12 -26 -42 -48 0
-12 -36 -42 -48 0
-13 -24 -26 -36 0
-13 -24 -26 -42 0
-13 -24 -26 -48 0
-13 -24 -36 -42 0
-13 -24 -36 -48 0
-13 -24 -42 -48 0
-13 -26 -36 -42 0
-13 -26 -36 -48 0
-13 -26 -42 -48 0
-13 -36 -42 -48 0
-24 -26 -36 -42 0
-24 -26 -36 -48 0
-24 -26 -42 -48 0
-24 -36 -42 -48 0
-26 -36 -42 -48 0
-5 -9 -14 -22 0
-5 -9 -14 -26 0
-5 -9 -14 -35 0
-5 -9 -14 -37 0
-5 -9 -14 -46 0
-5 -9 -22 -26 0
-5 -9 -22 -35 0
-5 -9 -22 -37 0
-5 -9 -22 -46 0
-5 -9 -26 -35 0
-5 -9 -26 -37 0
-5 -9 -26 -46 0
-5 -9 -35 -37 0
-5 -9 -35 -46 0
-5 -9 -37 -46 0
-5 -14 -22 -26 0
-5 -14 -22 -35 0
-5 -14 -22 -37 0
-5 -14 -22 -46 0
-5 -14 -26 -35 0
-5 -14 -26 -37 0
-5 -14 -26 -46 0
-5 -14 -35 -37 0
-5 -14 -35 -46 0
-5 -14 -37 -46 0
-5 -22 -26 -35 0
-5 -22 -26 -37 0
-5 -22 -26 -46 0
-5 -22 -35 -37 0
-5 -22 -35 -46 0
-5 -22 -37 -46 0
-5 -26 -35 -37 0
-5 -26 -35 -46 0
-5 -26 -37 -46 0
-5 -35 -37 -46 0
-9 -14 -22 -26 0
-9 -14 -22 -35 0
-9 -14 -22 -37 0
-9 -14 -22 -46 0
-9 -14 -26 -35 0
-9 -14 -26 -37 0
-9 -14 -26 -46 0
-9 -14 -35 -37 0
-9 -14 -35 -46 0
-9 -14 -37 -46 0
-9 -22 -26 -35 0
-9 -22 -26 -37 0
-9 -22 -26 -46 0
-9 -22 -35 -37 0
-9 -22 -35 -46 0
-9 -22 -37 -46 0
-9 -26 -35 -37 0
-9 -26 -35 -46 0
-9 -26 -37 -46 0
-9 -35 -37 -46 0
-14 -22 -26 -35 0
-14 -22 -26 -37 0
-14 -22 -26 -46 0
-14 -22 -35 -37 0
-14 -22 -35 -46 0
-14 -22 -37 -46 0
-14 -26 -35 -37 0
-14 -26 -35 -46 0
-14 -26 -37 -46 0
-14 -35 -37 -46 0
-22 -26 -35 -37 0
-22 -26 -35 -46 0
-22 -26 -37 -46 0
-22 -35 -37 -46 0
-26 -35 -37 -46 0
-1 -7 -16 -19 0
-1 -7 -16 -25 0
-1 -7 -16 -33 0
-1 -7 -16 -42 0
-1 -7 -16 -45 0
-1 -7 -19 -25 0
-1 -7 -19 -33 0
-1 -7 -19 -42 0
-1 -7 -19 -45 0
-1 -7 -25 -33 0
-1 -7 -25 -42 0
-1 -7 -25 -45 0
-1 -7 -33 -42 0
-1 -7 -33 -45 0
-1 -7 -42 -45 0
-1 -16 -19 -25 0
-1 -16 -19 -33 0
-1 -16 -19 -42 0
-1 -16 -19 -45 0
-1 -16 -25 -33 0
-1 -16 -25 -42 0
-1 -16 -25 -45 0
-1 -16 -33 -42 0
-1 -16 -33 -45 0
-1 -16 -42 -45 0
-1 -19 -25 -33 0
-1 -19 -25 -42 0
-1 -19 -25 -45 0
-1 -19 -33 -42 0
-1 -19 -33 -45 0
-1 -19 -42 -45 0
-1 -25 -33 -42 0
-1 -25 -33 -45 0
-1 -25 -42 -45 0
-1 -33 -42 -45 0
-7 -16 -19 -25 0
-7 -16 -19 -33 0
-7 -16 -19 -42 0
-7 -16 -19 -45 0
-7 -16 -25 -33 0
-7 -16 -25 -42 0
-7 -16 -25 -45 0
-7 -16 -33 -42 0
-7 -16 -33 -45 0
-7 -16 -42 -45 0
-7 -19 -25 -33 0
-7 -19 -25 -42 0
-7 -19 -25 -45 0
-7 -19 -33 -42 0
-7 -19 -33 -45 0
-7 -19 -42 -45 0
-7 -25 -33 -42 0
-7 -25 -33 -45 0
-7 -25 -42 -45 0
-7 -33 -42 -45 0
-16 -19 -25 -33 0
-16 -19 -25 -42 0
-16 -19 -25 -45 0
-16 -19 -33 -42 0
-16 -19 -33 -45 0
-16 -19 -42 -45 0
-16 -25 -33 -42 0
-16 -25 -33 -45 0
-16 -25 -42 -45 0
-16 -33 -42 -45 0
-19 -25 -33 -42 0
-19 -25 -33 -45 0
-19 -25 -42 -45 0
-19 -33 -42 -45 0
-25 -33 -42 -45 0
-2 -8 -17 -20 0
-2 -8 -17 -26 0
-2 -8 -17 -34 0
-2 -8 -17 -37 0
-2 -8 -17 -46 0
-2 -8 -20 -26 0
-2 -8 -20 -34 0
-2 -8 -20 -37 0
-2 -8 -20 -46 0
-2 -8 -26 -34 0
-2 -8 -26 -37 0
-2 -8 -26 -46 0
-2 -8 -34 -37 0
-2 -8 -34 -46 0
-2 -8 -37 -46 0
-2 -17 -20 -26 0
-2 -17 -20 -34 0
-2 -17 -20 -37 0
-2 -17 -20 -46 0
-2 -17 -26 -34 0
-2 -17 -26 -37 0
-2 -17 -26 -46 0
-2 -17 -34 -37 0
-2 -17 -34 -46 0
-2 -17 -37 -46 0
-2 -20 -26 -34 0
-2 -20 -26 -37 0
-2 -20 -26 -46 0
-2 -20 -34 -37 0
-2 -20 -34 -46 0
-2 -20 -37 -46 0
-2 -26 -34 -37 0
-2 -26 -34 -46 0
-2 -26 -37 -46 0
-2 -34 -37 -46 0
-8 -17 -20 -26 0
-8 -17 -20 -34 0
-8 -17 -20 -37 0
-8 -17 -20 -46 0
-8 -17 -26 -34 0
-8 -17 -26 -37 0
-8 -17 -26 -46 0
-8 -17 -34 -37 0
-8 -17 -34 -46 0
-8 -17 -37 -46 0
-8 -20 -26 -34 0
-8 -20 -26 -37 0
-8 -20 -26 -46 0
-8 -20 -34 -37 0
-8 -20 -34 -46 0
-8 -20 -37 -46 0
-8 -26 -34 -37 0
-8 -26 -34 -46 0
-8 -26 -37 -46 0
-8 -34 -37 -46 0
-17 -20 -26 -34 0
-17 -20 -26 -37 0
-17 -20 -26 -46 0
-17 -20 -34 -37 0
-17 -20 -34 -46 0
-17 -20 -37 -46 0
-17 -26 -34 -37 0
-17 -26 -34 -46 0
-17 -26 -37 -46 0
-17 -34 -37 -46 0
-20 -26 -34 -37 0
-20 -26 -34 -46 0
-20 -26 -37 -46 0
-20 -34 -37 -46 0
-26 -34 -37 -46 0
-3 -9 -18 -21 0
-3 -9 -18 -27 0
-3 -9 -18 -35 0
-3 -9 -18 -38 0
-3 -9 -18 -47 0
-3 -9 -21 -27 0
-3 -9 -21 -35 0
-3 -9 -21 -38 0
-3 -9 -21 -47 0
-3 -9 -27 -35 0
-3 -9 -27 -38 0
-3 -9 -27 -47 0
-3 -9 -35 -38 0
-3 -9 -35 -47 0
-3 -9 -38 -47 0
-3 -18 -21 -27 0
-3 -18 -21 -35 0
-3 -18 -21 -38 0
-3 -18 -21 -47 0
-3 -18 -27 -35 0
-3 -18 -27 -38 0
-3 -18 -27 -47 0
-3 -18 -35 -38 0
-3 -18 -35 -47 0
-3 -18 -38 -47 0
-3 -21 -27 -35 0
-3 -21 -27 -38 0
-3 -21 -27 -47 0
-3 -21 -35 -38 0
-3 -21 -35 -47 0
-3 -21 -38 -47 0
-3 -27 -35 -38 0
-3 -27 -35 -47 0
-3 -27 -38 -47 0
-3 -35 -38 -47 0
-9 -18 -21 -27 0
-9 -18 -21 -35 0
-9 -18 -21 -38 0
-9 -18 -21 -47 0
-9 -18 -27 -35 0
-9 -18 -27 -38 0
-9 -18 -27 -47 0
-9 -18 -35 -38 0
-9 -18 -35 -47 0
-9 -18 -38 -47 0
-9 -21 -27 -35 0
-9 -21 -27 -38 0
-9 -21 -27 -47 0
-9 -21 -35 -38 0
-9 -21 -35 -47 0
-9 -21 -38 -47 0
-9 -27 -35 -38 0
-9 -27 -35 -47 0
-9 -27 -38 -47 0
-9 -35 -38 -47 0
-18 -21 -27 -35 0
-18 -21 -27 -38 0
-18 -21 -27 -47 0
-18 -21 -35 -38 0
-18 -21 -35 -47 0
-18 -21 -38 -47 0
-18 -27 -35 -38 0
-18 -27 -35 -47 0
-18 -27 -38 -47 0
-18 -35 -38 -47 0
-21 -27 -35 -38 0
-21 -27 -35 -47 0
-21 -27 -38 -47 0
-21 -35 -38 -47 0
-27 -35 -38 -47 0
-4 -10 -13 -22 0
-4 -10 -13 -28 0
-4 -10 -13 -36 0
-4 -10 -13 -39 0
-4 -10 -13 -48 0
-4 -10 -22 -28 0
-4 -10 -22 -36 0
-4 -10 -22 -39 0
-4 -10 -22 -48 0
-4 -10 -28 -36 0
-4 -10 -28 -39 0
-4 -10 -28 -48 0
-4 -10 -36 -39 0
-4 -10 -36 -48 0
-4 -10 -39 -48 0
-4 -13 -22 -28 0
-4 -13 -22 -36 0
-4 -13 -22 -39 0
-4 -13 -22 -48 0
-4 -13 -28 -36 0
-4 -13 -28 -39 0
-4 -13 -28 -48 0
-4 -13 -36 -39 0
-4 -13 -36 -48 0
-4 -13 -39 -48 0
-4 -22 -28 -36 0
-4 -22 -28 -39 0
-4 -22 -28 -48 0
-4 -22 -36 -39 0
-4 -22 -36 -48 0
-4 -22 -39 -48 0
-4 -28 -36 -39 0
-4 -28 -36 -48 0
-4 -28 -39 -48 0
-4 -36 -39 -48 0
-10 -13 -22 -28 0
-10 -13 -22 -36 0
-10 -13 -22 -39 0
-10 -13 -22 -48 0
-10 -13 -28 -36 0
-10 -13 -28 -39 0
-10 -13 -28 -48 0
-10 -13 -36 -39 0
-10 -13 -36 -48 0
-10 -13 -39 -48 0
-10 -22 -28 -36 0
-10 -22 -28 -39 0
-10 -22 -28 -48 0
-10 -22 -36 -39 0
-10 -22 -36 -48 0
-10 -22 -39 -48 0
-10 -28 -36 -39 0
-10 -28 -36 -48 0
-10 -28 -39 -48 0
-10 -36 -39 -48 0
-13 -22 -28 -36 0
-13 -22 -28 -39 0
-13 -22 -28 -48 0
-13 -22 -36 -39 0
-13 -22 -36 -48 0
-13 -22 -39 -48 0
-13 -28 -36 -39 0
-13 -28 -36 -48 0
-13 -28 -39 -48 0
-13 -36 -39 -48 0
-22 -28 -36 -39 0
-22 -28 -36 -48 0
-22 -28 -39 -48 0
-22 -36 -39 -48 0
-28 -36 -39 -48 0
-5 -11 -14 -19 0
-5 -11 -14 -29 0
-5 -11 -14 -31 0
-5 -11 -14 -40 0
-5 -11 -14 -43 0
-5 -11 -19 -29 0
-5 -11 -19 -31 0
-5 -11 -19 -40 0
-5 -11 -19 -43 0
-5 -11 -29 -31 0
-5 -11 -29 -40 0
-5 -11 -29 -43 0
-5 -11 -31 -40 0
-5 -11 -31 -43 0
-5 -11 -40 -43 0
-5 -14 -19 -29 0
-5 -14 -19 -31 0
-5 -14 -19 -40 0
-5 -14 -19 -43 0
-5 -14 -29 -31 0
-5 -14 -29 -40 0
-5 -14 -29 -43 0
-5 -14 -31 -40 0
-5 -14 -31 -43 0
-5 -14 -40 -43 0
-5 -19 -29 -31 0
-5 -19 -29 -40 0
-5 -19 -29 -43 0
-5 -19 -31 -40 0
-5 -19 -31 -43 0
-5 -19 -40 -43 0
-5 -29 -31 -40 0
-5 -29 -31 -43 0
-5 -29 -40 -43 0
-5 -31 -40 -43 0
-11 -14 -19 -29 0
-11 -14 -19 -31 0
-11 -14 -19 -40 0
-11 -14 -19 -43 0
-11 -14 -29 -31 0
-11 -14 -29 -40 0
-11 -14 -29 -43 0
-11 -14 -31 -40 0
-11 -14 -31 -43 0
-11 -14 -40 -43 0
-11 -19 -29 -31 0
-11 -19 -29 -40 0
-11 -19 -29 -43 0
-11 -19 -31 -40 0
-11 -19 -31 -43 0
-11 -19 -40 -43 0
-11 -29 -31 -40 0
-11 -29 -31 -43 0
-11 -29 -40 -43 0
-11 -31 -40 -43 0
-14 -19 -29 -31 0
-14 -19 -29 -40 0
-14 -19 -29 -43 0
-14 -19 -31 -40 0
-14 -19 -31 -43 0
-14 -19 -40 -43 0
-14 -29 -31 -40 0
-14 -29 -31 -43 0
-14 -29 -40 -43 0
-14 -31 -40 -43 0
-19 -29 -31 -40 0
-19 -29 -31 -43 0
-19 -29 -40 -43 0
-19 -31 -40 -43 0
-29 -31 -40 -43 0
-6 -12 -15 -24 0
-6 -12 -15 -30 0
-6 -12 -15 -32 0
-6 -12 -15 -41 0
-6 -12 -15 -44 0
-6 -12 -24 -30 0
-6 -12 -24 -32 0
-6 -12 -24 -41 0
-6 -12 -24 -44 0
-6 -12 -30 -32 0
-6 -12 -30 -41 0
-6 -12 -30 -44 0
-6 -12 -32 -41 0
-6 -12 -32 -44 0
-6 -12 -41 -44 0
-6 -15 -24 -30 0
-6 -15 -24 -32 0
-6 -15 -24 -41 0
-6 -15 -24 -44 0
-6 -15 -30 -32 0
-6 -15 -30 -41 0
-6 -15 -30 -44 0
-6 -15 -32 -41 0
-6 -15 -32 -44 0
-6 -15 -41 -44 0
-6 -24 -30 -32 0
-6 -24 -30 -41 0
-6 -24 -30 -44 0
-6 -24 -32 -41 0
-6 -24 -32 -44 0
-6 -24 -41 -44 0
-6 -30 -32 -41 0
-6 -30 -32 -44 0
-6 -30 -41 -44 0
-6 -32 -41 -44 0
-12 -15 -24 -30 0
-12 -15 -24 -32 0
-12 -15 -24 -41 0
-12 -15 -24 -44 0
-12 -15 -30 -32 0
-12 -15 -30 -41 0
-12 -15 -30 -44 0
-12 -15 -32 -41 0
-12 -15 -32 -44 0
-12 -15 -41 -44 0
-12 -24 -30 -32 0
-12 -24 -30 -41 0
-12 -24 -30 -44 0
-12 -24 -32 -41 0
-12 -24 -32 -44 0
-12 -24 -41 -44 0
-12 -30 -32 -41 0
-12 -30 -32 -44 0
-12 -30 -41 -44 0
-12 -32 -41 -44 0
-15 -24 -30 -32 0
-15 -24 -30 -41 0
-15 -24 -30 -44 0
-15 -24 -32 -41 0
-15 -24 -32 -44 0
-15 -24 -41 -44 0
-15 -30 -32 -41 0
-15 -30 -32 -44 0
-15 -30 -41 -44 0
-15 -32 -41 -44 0
-24 -30 -32 -41 0
-24 -30 -32 -44 0
-24 -30 -41 -44 0
-24 -32 -41 -44 0
-30 -32 -41 -44 0
-1 -12 -18 -22 0
-1 -12 -18 -30 0
-1 -12 -18 -31 0
-1 -12 -18 -39 0
-1 -12 -18 -47 0
-1 -12 -22 -30 0
-1 -12 -22 -31 0
-1 -12 -22 -39 0
-1 -12 -22 -47 0
-1 -12 -30 -31 0
-1 -12 -30 -39 0
-1 -12 -30 -47 0
-1 -12 -31 -39 0
-1 -12 -31 -47 0
-1 -12 -39 -47 0
-1 -18 -22 -30 0
-1 -18 -22 -31 0
-1 -18 -22 -39 0
-1 -18 -22 -47 0
-1 -18 -30 -31 0
-1 -18 -30 -39 0
-1 -18 -30 -47 0
-1 -18 -31 -39 0
-1 -18 -31 -47 0
-1 -18 -39 -47 0
-1 -22 -30 -31 0
-1 -22 -30 -39 0
-1 -22 -30 -47 0
-1 -22 -31 -39 0
-1 -22 -31 -47 0
-1 -22 -39 -47 0
-1 -30 -31 -39 0
-1 -30 -31 -47 0
-1 -30 -39 -47 0
-1 -31 -39 -47 0
-12 -18 -22 -30 0
-12 -18 -22 -31 0
-12 -18 -22 -39 0
-12 -18 -22 -47 0
-12 -18 -30 -31 0
-12 -18 -30 -39 0
-12 -18 -30 -47 0
-12 -18 -31 -39 0
-12 -18 -31 -47 0
-12 -18 -39 -47 0
-12 -22 -30 -31 0
-12 -22 -30 -39 0
-12 -22 -30 -47 0
-12 -22 -31 -39 0
-12 -22 -31 -47 0
-12 -22 -39 -47 0
-12 -30 -31 -39 0
-12 -30 -31 -47 0
-12 -30 -39 -47 0
-12 -31 -39 -47 0
-18 -22 -30 -31 0
-18 -22 -30 -39 0
-18 -22 -30 -47 0
-18 -22 -31 -39 0
-18 -22 -31 -47 0
-18 -22 -39 -47 0
-18 -30 -31 -39 0
-18 -30 -31 -47 0
-18 -30 -39 -47 0
-18 -31 -39 -47 0
-22 -30 -31 -39 0
-22 -30 -31 -47 0
-22 -30 -39 -47 0
-22 -31 -39 -47 0
-30 -31 -39 -47 0
-2 -7 -13 -23 0
-2 -7 -13 -25 0
-2 -7 -13 -32 0
-2 -7 -13 -40 0
-2 -7 -13 -48 0
-2 -7 -23 -25 0
-2 -7 -23 -32 0
-2 -7 -23 -40 0
-2 -7 -23 -48 0
-2 -7 -25 -32 0
-2 -7 -25 -40 0
-2 -7 -25 -48 0
-2 -7 -32 -40 0
-2 -7 -32 -48 0
-2 -7 -40 -48 0
-2 -13 -23 -25 0
-2 -13 -23 -32 0
-2 -13 -23 -40 0
-2 -13 -23 -48 0
-2 -13 -25 -32 0
-2 -13 -25 -40 0
-2 -13 -25 -48 0
-2 -13 -32 -40 0
-2 -13 -32 -48 0
-2 -13 -40 -48 0
-2 -23 -25 -32 0
-2 -23 -25 -40 0
-2 -23 -25 -48 0
-2 -23 -32 -40 0
-2 -23 -32 -48 0
-2 -23 -40 -48 0
-2 -25 -32 -40 0
-2 -25 -32 -48 0
-2 -25 -40 -48 0
-2 -32 -40 -48 0
-7 -13 -23 -25 0
-7 -13 -23 -32 0
-7 -13 -23 -40 0
-7 -13 -23 -48 0
-7 -13 -25 -32 0
-7 -13 -25 -40 0
-7 -13 -25 -48 0
-7 -13 -32 -40 0
-7 -13 -32 -48 0
-7 -13 -40 -48 0
-7 -23 -25 -32 0
-7 -23 -25 -40 0
-7 -23 -25 -48 0
-7 -23 -32 -40 0
-7 -23 -32 -48 0
-7 -23 -40 -48 0
-7 -25 -32 -40 0
-7 -25 -32 -48 0
-7 -25 -40 -48 0
-7 -32 -40 -48 0
-13 -23 -25 -32 0
-13 -23 -25 -40 0
-13 -23 -25 -48 0
-13 -23 -32 -40 0
-13 -23 -32 -48 0
-13 -23 -40 -48 0
-13 -25 -32 -40 0
-13 -25 -32 -48 0
-13 -25 -40 -48 0
-13 -32 -40 -48 0
-23 -25 -32 -40 0
-23 -25 -32 -48 0
-23 -25 -40 -48 0
-23 -32 -40 -48 0
-25 -32 -40 -48 0
-3 -8 -14 -24 0
-3 -8 -14 -26 0
-3 -8 -14 -33 0
-3 -8 -14 -41 0
-3 -8 -14 -43 0
-3 -8 -24 -26 0
-3 -8 -24 -33 0
-3 -8 -24 -41 0
-3 -8 -24 -43 0
-3 -8 -26 -33 0
-3 -8 -26 -41 0
-3 -8 -26 -43 0
-3 -8 -33 -41 0
-3 -8 -33 -43 0
-3 -8 -41 -43 0
-3 -14 -24 -26 0
-3 -14 -24 -33 0
-3 -14 -24 -41 0
-3 -14 -24 -43 0
-3 -14 -26 -33 0
-3 -14 -26 -41 0
-3 -14 -26 -43 0
-3 -14 -33 -41 0
-3 -14 -33 -43 0
-3 -14 -41 -43 0
-3 -24 -26 -33 0
-3 -24 -26 -41 0
-3 -24 -26 -43 0
-3 -24 -33 -41 0
-3 -24 -33 -43 0
-3 -24 -41 -43 0
-3 -26 -33 -41 0
-3 -26 -33 -43 0
-3 -26 -41 -43 0
-3 -33 -41 -43 0
-8 -14 -24 -26 0
-8 -14 -24 -33 0
-8 -14 -24 -41 0
-8 -14 -24 -43 0
-8 -14 -26 -33 0
-8 -14 -26 -41 0
-8 -14 -26 -43 0
-8 -14 -33 -41 0
-8 -14 -33 -43 0
-8 -14 -41 -43 0
-8 -24 -26 -33 0
-8 -24 -26 -41 0
-8 -24 -26 -43 0
-8 -24 -33 -41 0
-8 -24 -33 -43 0
-8 -24 -41 -43 0
-8 -26 -33 -41 0
-8 -26 -33 -43 0
-8 -26 -41 -43 0
-8 -33 -41 -43 0
-14 -24 -26 -33 0
-14 -24 -26 -41 0
-14 -24 -26 -43 0
-14 -24 -33 -41 0
-14 -24 -33 -43 0
-14 -24 -41 -43 0
-14 -26 -33 -41 0
-14 -26 -33 -43 0
-14 -26 -41 -43 0
-14 -33 -41 -43 0
-24 -26 -33 -41 0
-24 -26 -33 -43 0
-24 -26 -41 -43 0
-24 -33 -41 -43 0
-26 -33 -41 -43 0
-4 -9 -15 -19 0
-4 -9 -15 -27 0
-4 -9 -15 -34 0
-4 -9 -15 -42 0
-4 -9 -15 -44 0
-4 -9 -19 -27 0
-4 -9 -19 -34 0
-4 -9 -19 -42 0
-4 -9 -19 -44 0
-4 -9 -27 -34 0
-4 -9 -27 -42 0
-4 -9 -27 -44 0
-4 -9 -34 -42 0
-4 -9 -34 -44 0
-4 -9 -42 -44 0
-4 -15 -19 -27 0
-4 -15 -19 -34 0
-4 -15 -19 -42 0
-4 -15 -19 -44 0
-4 -15 -27 -34 0
-4 -15 -27 -42 0
-4 -15 -27 -44 0
-4 -15 -34 -42 0
-4 -15 -34 -44 0
-4 -15 -42 -44 0
-4 -19 -27 -34 0
-4 -19 -27 -42 0
-4 -19 -27 -44 0
-4 -19 -34 -42 0
-4 -19 -34 -44 0
-4 -19 -42 -44 0
-4 -27 -34 -42 0
-4 -27 -34 -44 0
-4 -27 -42 -44 0
-4 -34 -42 -44 0
-9 -15 -19 -27 0
-9 -15 -19 -34 0
-9 -15 -19 -42 0
-9 -15 -19 -44 0
-9 -15 -27 -34 0
-9 -15 -27 -42 0
-9 -15 -27 -44 0
-9 -15 -34 -42 0
-9 -15 -34 -44 0
-9 -15 -42 -44 0
-9 -19 -27 -34 0
-9 -19 -27 -42 0
-9 -19 -27 -44 0
-9 -19 -34 -42 0
-9 -19 -34 -44 0
-9 -19 -42 -44 0
-9 -27 -34 -42 0
-9 -27 -34 -44 0
-9 -27 -42 -44 0
-9 -34 -42 -44 0
-15 -19 -27 -34 0
-15 -19 -27 -42 0
-15 -19 -27 -44 0
-15 -19 -34 -42 0
-15 -19 -34 -44 0
-15 -19 -42 -44 0
-15 -27 -34 -42 0
-15 -27 -34 -44 0
-15 -27 -42 -44 0
-15 -34 -42 -44 0
-19 -27 -34 -42 0
-19 -27 -34 -44 0
-19 -27 -42 -44 0
-19 -34 -42 -44 0
-27 -34 -42 -44 0
-5 -11 -16 -20 0
-5 -11 -16 -28 0
-5 -11 -16 -35 0
-5 -11 -16 -37 0
-5 -11 -16 -45 0
-5 -11 -20 -28 0
-5 -11 -20 -35 0
-5 -11 -20 -37 0
-5 -11 -20 -45 0
-5 -11 -28 -35 0
-5 -11 -28 -37 0
-5 -11 -28 -45 0
-5 -11 -35 -37 0
-5 -11 -35 -45 0
-5 -11 -37 -45 0
-5 -16 -20 -28 0
-5 -16 -20 -35 0
-5 -16 -20 -37 0
-5 -16 -20 -45 0
-5 -16 -28 -35 0
-5 -16 -28 -37 0
-5 -16 -28 -45 0
-5 -16 -35 -37 0
-5 -16 -35 -45 0
-5 -16 -37 -45 0
-5 -20 -28 -35 0
-5 -20 -28 -37 0
-5 -20 -28 -45 0
-5 -20 -35 -37 0
-5 -20 -35 -45 0
-5 -20 -37 -45 0
-5 -28 -35 -37 0
-5 -28 -35 -45 0
-5 -28 -37 -45 0
-5 -35 -37 -45 0
-11 -16 -20 -28 0
-11 -16 -20 -35 0
-11 -16 -20 -37 0
-11 -16 -20 -45 0
-11 -16 -28 -35 0
-11 -16 -28 -37 0
-11 -16 -28 -45 0
-11 -16 -35 -37 0
-11 -16 -35 -45 0
-11 -16 -37 -45 0
-11 -20 -28 -35 0
-11 -20 -28 -37 0
-11 -20 -28 -45 0
-11 -20 -35 -37 0
-11 -20 -35 -45 0
-11 -20 -37 -45 0
-11 -28 -35 -37 0
-11 -28 -35 -45 0
-11 -28 -37 -45 0
-11 -35 -37 -45 0
-16 -20 -28 -35 0
-16 -20 -28 -37 0
-16 -20 -28 -45 0
-16 -20 -35 -37 0
-16 -20 -35 -45 0
-16 -20 -37 -45 0
-16 -28 -35 -37 0
-16 -28 -35 -45 0
-16 -28 -37 -45 0
-16 -35 -37 -45 0
-20 -28 -35 -37 0
-20 -28 -35 -45 0
-20 -28 -37 -45 0
-20 -35 -37 -45 0
-28 -35 -37 -45 0
-6 -11 -17 -21 0
-6 -11 -17 -29 0
-6 -11 -17 -36 0
-6 -11 -17 -38 0
-6 -11 -17 -46 0
-6 -11 -21 -29 0
-6 -11 -21 -36 0
-6 -11 -21 -38 0
-6 -11 -21 -46 0
-6 -11 -29 -36 0
-6 -11 -29 -38 0
-6 -11 -29 -46 0
-6 -11 -36 -38 0
-6 -11 -36 -46 0
-6 -11 -38 -46 0
-6 -17 -21 -29 0
-6 -17 -21 -36 0
-6 -17 -21 -38 0
-6 -17 -21 -46 0
-6 -17 -29 -36 0
-6 -17 -29 -38 0
-6 -17 -29 -46 0
-6 -17 -36 -38 0
-6 -17 -36 -46 0
-6 -17 -38 -46 0
-6 -21 -29 -36 0
-6 -21 -29 -38 0
-6 -21 -29 -46 0
-6 -21 -36 -38 0
-6 -21 -36 -46 0
-6 -21 -38 -46 0
-6 -29 -36 -38 0
-6 -29 -36 -46 0
-6 -29 -38 -46 0
-6 -36 -38 -46 0
-11 -17 -21 -29 0
-11 -17 -21 -36 0
-11 -17 -21 -38 0
-11 -17 -21 -46 0
-11 -17 -29 -36 0
-11 -17 -29 -38 0
-11 -17 -29 -46 0
-11 -17 -36 -38 0
-11 -17 -36 -46 0
-11 -17 -38 -46 0
-11 -21 -29 -36 0
-11 -21 -29 -38 0
-11 -21 -29 -46 0
-11 -21 -36 -38 0
-11 -21 -36 -46 0
-11 -21 -38 -46 0
-11 -29 -36 -38 0
-11 -29 -36 -46 0
-11 -29 -38 -46 0
-11 -36 -38 -46 0
-17 -21 -29 -36 0
-17 -21 -29 -38 0
-17 -21 -29 -46 0
-17 -21 -36 -38 0
-17 -21 -36 -46 0
-17 -21 -38 -46 0
-17 -29 -36 -38 0
-17 -29 -36 -46 0
-17 -29 -38 -46 0
-17 -36 -38 -46 0
-21 -29 -36 -38 0
-21 -29 -36 -46 0
-21 -29 -38 -46 0
-21 -36 -38 -46 0
-29 -36 -38 -46 0
-1 -8 -18 -19 0
-1 -8 -18 -25 0
-1 -8 -18 -31 0
-1 -8 -18 -41 0
-1 -8 -18 -46 0
-1 -8 -19 -25 0
-1 -8 -19 -31 0
-1 -8 -19 -41 0
-1 -8 -19 -46 0
-1 -8 -25 -31 0
-1 -8 -25 -41 0
-1 -8 -25 -46 0
-1 -8 -31 -41 0
-1 -8 -31 -46 0
-1 -8 -41 -46 0
-1 -18 -19 -25 0
-1 -18 -19 -31 0
-1 -18 -19 -41 0
-1 -18 -19 -46 0
-1 -18 -25 -31 0
-1 -18 -25 -41 0
-1 -18 -25 -46 0
-1 -18 -31 -41 0
-1 -18 -31 -46 0
-1 -18 -41 -46 0
-1 -19 -25 -31 0
-1 -19 -25 -41 0
-1 -19 -25 -46 0
-1 -19 -31 -41 0
-1 -19 -31 -46 0
-1 -19 -41 -46 0
-1 -25 -31 -41 0
-1 -25 -31 -46 0
-1 -25 -41 -46 0
-1 -31 -41 -46 0
-8 -18 -19 -25 0
-8 -18 -19 -31 0
-8 -18 -19 -41 0
-8 -18 -19 -46 0
-8 -18 -25 -31 0
-8 -18 -25 -41 0
-8 -18 -25 -46 0
-8 -18 -31 -41 0
-8 -18 -31 -46 0
-8 -18 -41 -46 0
-8 -19 -25 -31 0
-8 -19 -25 -41 0
-8 -19 -25 -46 0
-8 -19 -31 -41 0
-8 -19 -31 -46 0
-8 -19 -41 -46 0
-8 -25 -31 -41 0
-8 -25 -31 -46 0
-8 -25 -41 -46 0
-8 -31 -41 -46 0
-18 -19 -25 -31 0
-18 -19 -25 -41 0
-18 -19 -25 -46 0
-18 -19 -31 -41 0
-18 -19 -31 -46 0
-18 -19 -41 -46 0
-18 -25 -31 -41 0
-18 -25 -31 -46 0
-18 -25 -41 -46 0
-18 -31 -41 -46 0
-19 -25 -31 -41 0
-19 -25 -31 -46 0
-19 -25 -41 -46 0
-19 -31 -41 -46 0
-25 -31 -41 -46 0
-2 -9 -13 -24 0
-2 -9 -13 -26 0
-2 -9 -13 -32 0
-2 -9 -13 -40 0
-2 -9 -13 -47 0
-2 -9 -24 -26 0
-2 -9 -24 -32 0
-2 -9 -24 -40 0
-2 -9 -24 -47 0
-2 -9 -26 -32 0
-2 -9 -26 -40 0
-2 -9 -26 -47 0
-2 -9 -32 -40 0
-2 -9 -32 -47 0
-2 -9 -40 -47 0
-2 -13 -24 -26 0
-2 -13 -24 -32 0
-2 -13 -24 -40 0
-2 -13 -24 -47 0
-2 -13 -26 -32 0
-2 -13 -26 -40 0
-2 -13 -26 -47 0
-2 -13 -32 -40 0
-2 -13 -32 -47 0
-2 -13 -40 -47 0
-2 -24 -26 -32 0
-2 -24 -26 -40 0
-2 -24 -26 -47 0
-2 -24 -32 -40 0
-2 -24 -32 -47 0
-2 -24 -40 -47 0
-2 -26 -32 -40 0
-2 -26 -32 -47 0
-2 -26 -40 -47 0
-2 -32 -40 -47 0
-9 -13 -24 -26 0
-9 -13 -24 -32 0
-9 -13 -24 -40 0
-9 -13 -24 -47 0
-9 -13 -26 -32 0
-9 -13 -26 -40 0
-9 -13 -26 -47 0
-9 -13 -32 -40 0
-9 -13 -32 -47 0
-9 -13 -40 -47 0
-9 -24 -26 -32 0
-9 -24 -26 -40 0
-9 -24 -26 -47 0
-9 -24 -32 -40 0
-9 -24 -32 -47 0
-9 -24 -40 -47 0
-9 -26 -32 -40 0
-9 -26 -32 -47 0
-9 -26 -40 -47 0
-9 -32 -40 -47 0
-13 -24 -26 -32 0
-13 -24 -26 -40 0
-13 -24 -26 -47 0
-13 -24 -32 -40 0
-13 -24 -32 -47 0
-13 -24 -40 -47 0
-13 -26 -32 -40 0
-13 -26 -32 -47 0
-13 -26 -40 -47 0
-13 -32 -40 -47 0
-24 -26 -32 -40 0
-24 -26 -32 -47 0
-24 -26 -40 -47 0
-24 -32 -40 -47 0
-26 -32 -40 -47 0
-3 -10 -14 -21 0
-3 -10 -14 -27 0
-3 -10 -14 -33 0
-3 -10 -14 -37 0
-3 -10 -14 -48 0
-3 -10 -21 -27 0
-3 -10 -21 -33 0
-3 -10 -21 -37 0
-3 -10 -21 -48 0
-3 -10 -27 -33 0
-3 -10 -27 -37 0
-3 -10 -27 -48 0
-3 -10 -33 -37 0
-3 -10 -33 -48 0
-3 -10 -37 -48 0
-3 -14 -21 -27 0
-3 -14 -21 -33 0
-3 -14 -21 -37 0
-3 -14 -21 -48 0
-3 -14 -27 -33 0
-3 -14 -27 -37 0
-3 -14 -27 -48 0
-3 -14 -33 -37 0
-3 -14 -33 -48 0
-3 -14 -37 -48 0
-3 -21 -27 -33 0
-3 -21 -27 -37 0
-3 -21 -27 -48 0
-3 -21 -33 -37 0
-3 -21 -33 -48 0
-3 -21 -37 -48 0
-3 -27 -33 -37 0
-3 -27 -33 -48 0
-3 -27 -37 -48 0
-3 -33 -37 -48 0
-10 -14 -21 -27 0
-10 -14 -21 -33 0
-10 -14 -21 -37 0
-10 -14 -21 -48 0
-10 -14 -27 -33 0
-10 -14 -27 -37 0
-10 -14 -27 -48 0
-10 -14 -33 -37 0
-10 -14 -33 -48 0
-10 -14 -37 -48 0
-10 -21 -27 -33 0
-10 -21 -27 -37 0
-10 -21 -27 -48 0
-10 -21 -33 -37 0
-10 -21 -33 -48 0
-10 -21 -37 -48 0
-10 -27 -33 -37 0
-10 -27 -33 -48 0
-10 -27 -37 -48 0
-10 -33 -37 -48 0
-14 -21 -27 -33 0
-14 -21 -27 -37 0
-14 -21 -27 -48 0
-14 -21 -33 -37 0
-14 -21 -33 -48 0
-14 -21 -37 -48 0
-14 -27 -33 -37 0
-14 -27 -33 -48 0
-14 -27 -37 -48 0
-14 -33 -37 -48 0
-21 -27 -33 -37 0
-21 -27 -33 -48 0
-21 -27 -37 -48 0
-21 -33 -37 -48 0
-27 -33 -37 -48 0
-4 -11 -15 -22 0
-4 -11 -15 -28 0
-4 -11 -15 -34 0
-4 -11 -15 -38 0
-4 -11 -15 -43 0
-4 -11 -22 -28 0
-4 -11 -22 -34 0
-4 -11 -22 -38 0
-4 -11 -22 -43 0
-4 -11 -28 -34 0
-4 -11 -28 -38 0
-4 -11 -28 -43 0
-4 -11 -34 -38 0
-4 -11 -34 -43 0
-4 -11 -38 -43 0
-4 -15 -22 -28 0
-4 -15 -22 -34 0
-4 -15 -22 -38 0
-4 -15 -22 -43 0
-4 -15 -28 -34 0
-4 -15 -28 -38 0
-4 -15 -28 -43 0
-4 -15 -34 -38 0
-4 -15 -34 -43 0
-4 -15 -38 -43 0
-4 -22 -28 -34 0
-4 -22 -28 -38 0
-4 -22 -28 -43 0
-4 -22 -34 -38 0
-4 -22 -34 -43 0
-4 -22 -38 -43 0
-4 -28 -34 -38 0
-4 -28 -34 -43 0
-4 -28 -38 -43 0
-4 -34 -38 -43 0
-11 -15 -22 -28 0
-11 -15 -22 -34 0
-11 -15 -22 -38 0
-11 -15 -22 -43 0
-11 -15 -28 -34 0
-11 -15 -28 -38 0
-11 -15 -28 -43 0
-11 -15 -34 -38 0
-11 -15 -34 -43 0
-11 -15 -38 -43 0
-11 -22 -28 -34 0
-11 -22 -28 -38 0
-11 -22 -28 -43 0
-11 -22 -34 -38 0
-11 -22 -34 -43 0
-11 -22 -38 -43 0
-11 -28 -34 -38 0
-11 -28 -34 -43 0
-11 -28 -38 -43 0
-11 -34 -38 -43 0
-15 -22 -28 -34 0
-15 -22 -28 -38 0
-15 -22 -28 -43 0
-15 -22 -34 -38 0
-15 -22 -34 -43 0
-15 -22 -38 -43 0
-15 -28 -34 -38 0
-15 -28 -34 -43 0
-15 -28 -38 -43 0
-15 -34 -38 -43 0
-22 -28 -34 -38 0
-22 -28 -34 -43 0
-22 -28 -38 -43 0
-22 -34 -38 -43 0
-28 -34 -38 -43 0
-5 -12 -16 -23 0
-5 -12 -16 -29 0
-5 -12 -16 -35 0
-5 -12 -16 -39 0
-5 -12 -16 -44 0
-5 -12 -23 -29 0
-5 -12 -23 -35 0
-5 -12 -23 -39 0
-5 -12 -23 -44 0
-5 -12 -29 -35 0
-5 -12 -29 -39 0
-5 -12 -29 -44 0
-5 -12 -35 -39 0
-5 -12 -35 -44 0
-5 -12 -39 -44 0
-5 -16 -23 -29 0
-5 -16 -23 -35 0
-5 -16 -23 -39 0
-5 -16 -23 -44 0
-5 -16 -29 -35 0
-5 -16 -29 -39 0
-5 -16 -29 -44 0
-5 -16 -35 -39 0
-5 -16 -35 -44 0
-5 -16 -39 -44 0
-5 -23 -29 -35 0
-5 -23 -29 -39 0
-5 -23 -29 -44 0
-5 -23 -35 -39 0
-5 -23 -35 -44 0
-5 -23 -39 -44 0
-5 -29 -35 -39 0
-5 -29 -35 -44 0
-5 -29 -39 -44 0
-5 -35 -39 -44 0
-12 -16 -23 -29 0
-12 -16 -23 -35 0
-12 -16 -23 -39 0
-12 -16 -23 -44 0
-12 -16 -29 -35 0
-12 -16 -29 -39 0
-12 -16 -29 -44 0
-12 -16 -35 -39 0
-12 -16 -35 -44 0
-12 -16 -39 -44 0
-12 -23 -29 -35 0
-12 -23 -29 -39 0
-12 -23 -29 -44 0
-12 -23 -35 -39 0
-12 -23 -35 -44 0
-12 -23 -39 -44 0
-12 -29 -35 -39 0
-12 -29 -35 -44 0
-12 -29 -39 -44 0
-12 -35 -39 -44 0
-16 -23 -29 -35 0
-16 -23 -29 -39 0
-16 -23 -29 -44 0
-16 -23 -35 -39 0
-16 -23 -35 -44 0
-16 -23 -39 -44 0
-16 -29 -35 -39 0
-16 -29 -35 -44 0
-16 -29 -39 -44 0
-16 -35 -39 -44 0
-23 -29 -35 -39 0
-23 -29 -35 -44 0
-23 -29 -39 -44 0
-23 -35 -39 -44 0
-29 -35 -39 -44 0
-6 -7 -17 -24 0
-6 -7 -17 -30 0
-6 -7 -17 -36 0
-6 -7 -17 -40 0
-6 -7 -17 -45 0
-6 -7 -24 -30 0
-6 -7 -24 -36 0
-6 -7 -24 -40 0
-6 -7 -24 -45 0
-6 -7 -30 -36 0
-6 -7 -30 -40 0
-6 -7 -30 -45 0
-6 -7 -36 -40 0
-6 -7 -36 -45 0
-6 -7 -40 -45 0
-6 -17 -24 -30 0
-6 -17 -24 -36 0
-6 -17 -24 -40 0
-6 -17 -24 -45 0
-6 -17 -30 -36 0
-6 -17 -30 -40 0
-6 -17 -30 -45 0
-6 -17 -36 -40 0
-6 -17 -36 -45 0
-6 -17 -40 -45 0
-6 -24 -30 -36 0
-6 -24 -30 -40 0
-6 -24 -30 -45 0
-6 -24 -36 -40 0
-6 -24 -36 -45 0
-6 -24 -40 -45 0
-6 -30 -36 -40 0
-6 -30 -36 -45 0
-6 -30 -40 -45 0
-6 -36 -40 -45 0
-7 -17 -24 -30 0
-7 -17 -24 -36 0
-7 -17 -24 -40 0
-7 -17 -24 -45 0
-7 -17 -30 -36 0
-7 -17 -30 -40 0
-7 -17 -30 -45 0
-7 -17 -36 -40 0
-7 -17 -36 -45 0
-7 -17 -40 -45 0
-7 -24 -30 -36 0
-7 -24 -30 -40 0
-7 -24 -30 -45 0
-7 -24 -36 -40 0
-7 -24 -36 -45 0
-7 -24 -40 -45 0
-7 -30 -36 -40 0
-7 -30 -36 -45 0
-7 -30 -40 -45 0
-7 -36 -40 -45 0
-17 -24 -30 -36 0
-17 -24 -30 -40 0
-17 -24 -30 -45 0
-17 -24 -36 -40 0
-17 -24 -36 -45 0
-17 -24 -40 -45 0
-17 -30 -36 -40 0
-17 -30 -36 -45 0
-17 -30 -40 -45 0
-17 -36 -40 -45 0
-24 -30 -36 -40 0
-24 -30 -36 -45 0
-24 -30 -40 -45 0
-24 -36 -40 -45 0
-30 -36 -40 -45 0
-1 -10 -16 -20 0
-1 -10 -16 -29 0
-1 -10 -16 -35 0
-1 -10 -16 -37 0
-1 -10 -16 -47 0
-1 -10 -20 -29 0
-1 -10 -20 -35 0
-1 -10 -20 -37 0
-1 -10 -20 -47 0
-1 -10 -29 -35 0
-1 -10 -29 -37 0
-1 -10 -29 -47 0
-1 -10 -35 -37 0
-1 -10 -35 -47 0
-1 -10 -37 -47 0
-1 -16 -20 -29 0
-1 -16 -20 -35 0
-1 -16 -20 -37 0
-1 -16 -20 -47 0
-1 -16 -29 -35 0
-1 -16 -29 -37 0
-1 -16 -29 -47 0
-1 -16 -35 -37 0
-1 -16 -35 -47 0
-1 -16 -37 -47 0
-1 -20 -29 -35 0
-1 -20 -29 -37 0
-1 -20 -29 -47 0
-1 -20 -35 -37 0
-1 -20 -35 -47 0
-1 -20 -37 -47 0
-1 -29 -35 -37 0
-1 -29 -35 -47 0
-1 -29 -37 -47 0
-1 -35 -37 -47 0
-10 -16 -20 -29 0
-10 -16 -20 -35 0
-10 -16 -20 -37 0
-10 -16 -20 -47 0
-10 -16 -29 -35 0
-10 -16 -29 -37 0
-10 -16 -29 -47 0
-10 -16 -35 -37 0
-10 -16 -35 -47 0
-10 -16 -37 -47 0
-10 -20 -29 -35 0
-10 -20 -29 -37 0
-10 -20 -29 -47 0
-10 -20 -35 -37 0
-10 -20 -35 -47 0
-10 -20 -37 -47 0
-10 -29 -35 -37 0
-10 -29 -35 -47 0
-10 -29 -37 -47 0
-10 -35 -37 -47 0
-16 -20 -29 -35 0
-16 -20 -29 -37 0
-16 -20 -29 -47 0
-16 -20 -35 -37 0
-16 -20 -35 -47 0
-16 -20 -37 -47 0
-16 -29 -35 -37 0
-16 -29 -35 -47 0
-16 -29 -37 -47 0
-16 -35 -37 -47 0
-20 -29 -35 -37 0
-20 -29 -35 -47 0
-20 -29 -37 -47 0
-20 -35 -37 -47 0
-29 -35 -37 -47 0
-2 -7 -17 -19 0
-2 -7 -17 -27 0
-2 -7 -17 -36 0
-2 -7 -17 -38 0
-2 -7 -17 -48 0
-2 -7 -19 -27 0
-2 -7 -19 -36 0
-2 -7 -19 -38 0
-2 -7 -19 -48 0
-2 -7 -27 -36 0
-2 -7 -27 -38 0
-2 -7 -27 -48 0
-2 -7 -36 -38 0
-2 -7 -36 -48 0
-2 -7 -38 -48 0
-2 -17 -19 -27 0
-2 -17 -19 -36 0
-2 -17 -19 -38 0
-2 -17 -19 -48 0
-2 -17 -27 -36 0
-2 -17 -27 -38 0
-2 -17 -27 -48 0
-2 -17 -36 -38 0
-2 -17 -36 -48 0
-2 -17 -38 -48 0
-2 -19 -27 -36 0
-2 -19 -27 -38 0
-2 -19 -27 -48 0
-2 -19 -36 -38 0
-2 -19 -36 -48 0
-2 -19 -38 -48 0
-2 -27 -36 -38 0
-2 -27 -36 -48 0
-2 -27 -38 -48 0
-2 -36 -38 -48 0
-7 -17 -19 -27 0
-7 -17 -19 -36 0
-7 -17 -19 -38 0
-7 -17 -19 -48 0
-7 -17 -27 -36 0
-7 -17 -27 -38 0
-7 -17 -27 -48 0
-7 -17 -36 -38 0
-7 -17 -36 -48 0
-7 -17 -38 -48 0
-7 -19 -27 -36 0
-7 -19 -27 -38 0
-7 -19 -27 -48 0
-7 -19 -36 -38 0
-7 -19 -36 -48 0
-7 -19 -38 -48 0
-7 -27 -36 -38 0
-7 -27 -36 -48 0
-7 -27 -38 -48 0
-7 -36 -38 -48 0
-17 -19 -27 -36 0
-17 -19 -27 -38 0
-17 -19 -27 -48 0
-17 -19 -36 -38 0
-17 -19 -36 -48 0
-17 -19 -38 -48 0
-17 -27 -36 -38 0
-17 -27 -36 -48 0
-17 -27 -38 -48 0
-17 -36 -38 -48 0
-19 -27 -36 -38 0
-19 -27 -36 -48 0
-19 -27 -38 -48 0
-19 -36 -38 -48 0
-27 -36 -38 -48 0
-3 -12 -18 -22 0
-3 -12 -18 -25 0
-3 -12 -18 -31 0
-3 -12 -18 -39 0
-3 -12 -18 -43 0
-3 -12 -22 -25 0
-3 -12 -22 -31 0
-3 -12 -22 -39 0
-3 -12 -22 -43 0
-3 -12 -25 -31 0
-3 -12 -25 -39 0
-3 -12 -25 -43 0
-3 -12 -31 -39 0
-3 -12 -31 -43 0
-3 -12 -39 -43 0
-3 -18 -22 -25 0
-3 -18 -22 -31 0
-3 -18 -22 -39 0
-3 -18 -22 -43 0
-3 -18 -25 -31 0
-3 -18 -25 -39 0
-3 -18 -25 -43 0
-3 -18 -31 -39 0
-3 -18 -31 -43 0
-3 -18 -39 -43 0
-3 -22 -25 -31 0
-3 -22 -25 -39 0
-3 -22 -25 -43 0
-3 -22 -31 -39 0
-3 -22 -31 -43 0
-3 -22 -39 -43 0
-3 -25 -31 -39 0
-3 -25 -31 -43 0
-3 -25 -39 -43 0
-3 -31 -39 -43 0
-12 -18 -22 -25 0
-12 -18 -22 -31 0
-12 -18 -22 -39 0
-12 -18 -22 -43 0
-12 -18 -25 -31 0
-12 -18 -25 -39 0
-12 -18 -25 -43 0
-12 -18 -31 -39 0
-12 -18 -31 -43 0
-12 -18 -39 -43 0
-12 -22 -25 -31 0
-12 -22 -25 -39 0
-12 -22 -25 -43 0
-12 -22 -31 -39 0
-12 -22 -31 -43 0
-12 -22 -39 -43 0
-12 -25 -31 -39 0
-12 -25 -31 -43 0
-12 -25 -39 -43 0
-12 -31 -39 -43 0
-18 -22 -25 -31 0
-18 -22 -25 -39 0
-18 -22 -25 -43 0
-18 -22 -31 -39 0
-18 -22 -31 -43 0
-18 -22 -39 -43 0
-18 -25 -31 -39 0
-18 -25 -31 -43 0
-18 -25 -39 -43 0
-18 -31 -39 -43 0
-22 -25 -31 -39 0
-22 -25 -31 -43 0
-22 -25 -39 -43 0
-22 -31 -39 -43 0
-25 -31 -39 -43 0
-4 -8 -13 -21 0
-4 -8 -13 -26 0
-4 -8 -13 -31 0
-4 -8 -13 -40 0
-4 -8 -13 -44 0
-4 -8 -21 -26 0
-4 -8 -21 -31 0
-4 -8 -21 -40 0
-4 -8 -21 -44 0
-4 -8 -26 -31 0
-4 -8 -26 -40 0
-4 -8 -26 -44 0
-4 -8 -31 -40 0
-4 -8 -31 -44 0
-4 -8 -40 -44 0
-4 -13 -21 -26 0
-4 -13 -21 -31 0
-4 -13 -21 -40 0
-4 -13 -21 -44 0
-4 -13 -26 -31 0
-4 -13 -26 -40 0
-4 -13 -26 -44 0
-4 -13 -31 -40 0
-4 -13 -31 -44 0
-4 -13 -40 -44 0
-4 -21 -26 -31 0
-4 -21 -26 -40 0
-4 -21 -26 -44 0
-4 -21 -31 -40 0
-4 -21 -31 -44 0
-4 -21 -40 -44 0
-4 -26 -31 -40 0
-4 -26 -31 -44 0
-4 -26 -40 -44 0
-4 -31 -40 -44 0
-8 -13 -21 -26 0
-8 -13 -21 -31 0
-8 -13 -21 -40 0
-8 -13 -21 -44 0
-8 -13 -26 -31 0
-8 -13 -26 -40 0
-8 -13 -26 -44 0
-8 -13 -31 -40 0
-8 -13 -31 -44 0
-8 -13 -40 -44 0
-8 -21 -26 -31 0
-8 -21 -26 -40 0
-8 -21 -26 -44 0
-8 -21 -31 -40 0
-8 -21 -31 -44 0
-8 -21 -40 -44 0
-8 -26 -31 -40 0
-8 -26 -31 -44 0
-8 -26 -40 -44 0
-8 -31 -40 -44 0
-13 -21 -26 -31 0
-13 -21 -26 -40 0
-13 -21 -26 -44 0
-13 -21 -31 -40 0
-13 -21 -31 -44 0
-13 -21 -40 -44 0
-13 -26 -31 -40 0
-13 -26 -31 -44 0
-13 -26 -40 -44 0
-13 -31 -40 -44 0
-21 -26 -31 -40 0
-21 -26 -31 -44 0
-21 -26 -40 -44 0
-21 -31 -40 -44 0
-26 -31 -40 -44 0
-5 -8 -14 -22 0
-5 -8 -14 -27 0
-5 -8 -14 -33 0
-5 -8 -14 -41 0
-5 -8 -14 -45 0
-5 -8 -22 -27 0
-5 -8 -22 -33 0
-5 -8 -22 -41 0
-5 -8 -22 -45 0
-5 -8 -27 -33 0
-5 -8 -27 -41 0
-5 -8 -27 -45 0
-5 -8 -33 -41 0
-5 -8 -33 -45 0
-5 -8 -41 -45 0
-5 -14 -22 -27 0
-5 -14 -22 -33 0
-5 -14 -22 -41 0
-5 -14 -22 -45 0
-5 -14 -27 -33 0
-5 -14 -27 -41 0
-5 -14 -27 -45 0
-5 -14 -33 -41 0
-5 -14 -33 -45 0
-5 -14 -41 -45 0
-5 -22 -27 -33 0
-5 -22 -27 -41 0
-5 -22 -27 -45 0
-5 -22 -33 -41 0
-5 -22 -33 -45 0
-5 -22 -41 -45 0
-5 -27 -33 -41 0
-5 -27 -33 -45 0
-5 -27 -41 -45 0
-5 -33 -41 -45 0
-8 -14 -22 -27 0
-8 -14 -22 -33 0
-8 -14 -22 -41 0
-8 -14 -22 -45 0
-8 -14 -27 -33 0
-8 -14 -27 -41 0
-8 -14 -27 -45 0
-8 -14 -33 -41 0
-8 -14 -33 -45 0
-8 -14 -41 -45 0
-8 -22 -27 -33 0
-8 -22 -27 -41 0
-8 -22 -27 -45 0
-8 -22 -33 -41 0
-8 -22 -33 -45 0
-8 -22 -41 -45 0
-8 -27 -33 -41 0
-8 -27 -33 -45 0
-8 -27 -41 -45 0
-8 -33 -41 -45 0
-14 -22 -27 -33 0
-14 -22 -27 -41 0
-14 -22 -27 -45 0
-14 -22 -33 -41 0
-14 -22 -33 -45 0
-14 -22 -41 -45 0
-14 -27 -33 -41 0
-14 -27 -33 -45 0
-14 -27 -41 -45 0
-14 -33 -41 -45 0
-22 -27 -33 -41 0
-22 -27 -33 -45 0
-22 -27 -41 -45 0
-22 -33 -41 -45 0
-27 -33 -41 -45 0
-6 -9 -15 -23 0
-6 -9 -15 -28 0
-6 -9 -15 -34 0
-6 -9 -15 -42 0
-6 -9 -15 -46 0
-6 -9 -23 -28 0
-6 -9 -23 -34 0
-6 -9 -23 -42 0
-6 -9 -23 -46 0
-6 -9 -28 -34 0
-6 -9 -28 -42 0
-6 -9 -28 -46 0
-6 -9 -34 -42 0
-6 -9 -34 -46 0
-6 -9 -42 -46 0
-6 -15 -23 -28 0
-6 -15 -23 -34 0
-6 -15 -23 -42 0
-6 -15 -23 -46 0
-6 -15 -28 -34 0
-6 -15 -28 -42 0
-6 -15 -28 -46 0
-6 -15 -34 -42 0
-6 -15 -34 -46 0
-6 -15 -42 -46 0
-6 -23 -28 -34 0
-6 -23 -28 -42 0
-6 -23 -28 -46 0
-6 -23 -34 -42 0
-6 -23 -34 -46 0
-6 -23 -42 -46 0
-6 -28 -34 -42 0
-6 -28 -34 -46 0
-6 -28 -42 -46 0
-6 -34 -42 -46 0
-9 -15 -23 -28 0
-9 -15 -23 -34 0
-9 -15 -23 -42 0
-9 -15 -23 -46 0
-9 -15 -28 -34 0
-9 -15 -28 -42 0
-9 -15 -28 -46 0
-9 -15 -34 -42 0
-9 -15 -34 -46 0
-9 -15 -42 -46 0
-9 -23 -28 -34 0
-9 -23 -28 -42 0
-9 -23 -28 -46 0
-9 -23 -34 -42 0
-9 -23 -34 -46 0
-9 -23 -42 -46 0
-9 -28 -34 -42 0
-9 -28 -34 -46 0
-9 -28 -42 -46 0
-9 -34 -42 -46 0
-15 -23 -28 -34 0
-15 -23 -28 -42 0
-15 -23 -28 -46 0
-15 -23 -34 -42 0
-15 -23 -34 -46 0
-15 -23 -42 -46 0
-15 -28 -34 -42 0
-15 -28 -34 -46 0
-15 -28 -42 -46 0
-15 -34 -42 -46 0
-23 -28 -34 -42 0
-23 -28 -34 -46 0
-23 -28 -42 -46 0
-23 -34 -42 -46 0
-28 -34 -42 -46 0
-2 -9 -13 -19 0
-2 -9 -13 -30 0
-2 -9 -13 -31 0
-2 -9 -13 -37 0
-2 -9 -13 -44 0
-2 -9 -19 -30 0
-2 -9 -19 -31 0
-2 -9 -19 -37 0
-2 -9 -19 -44 0
-2 -9 -30 -31 0
-2 -9 -30 -37 0
-2 -9 -30 -44 0
-2 -9 -31 -37 0
-2 -9 -31 -44 0
-2 -9 -37 -44 0
-2 -13 -19 -30 0
-2 -13 -19 -31 0
-2 -13 -19 -37 0
-2 -13 -19 -44 0
-2 -13 -30 -31 0
-2 -13 -30 -37 0
-2 -13 -30 -44 0
-2 -13 -31 -37 0
-2 -13 -31 -44 0
-2 -13 -37 -44 0
-2 -19 -30 -31 0
-2 -19 -30 -37 0
-2 -19 -30 -44 0
-2 -19 -31 -37 0
-2 -19 -31 -44 0
-2 -19 -37 -44 0
-2 -30 -31 -37 0
-2 -30 -31 -44 0
-2 -30 -37 -44 0
-2 -31 -37 -44 0
-9 -13 -19 -30 0
-9 -13 -19 -31 0
-9 -13 -19 -37 0
-9 -13 -19 -44 0
-9 -13 -30 -31 0
-9 -13 -30 -37 0
-9 -13 -30 -44 0
-9 -13 -31 -37 0
-9 -13 -31 -44 0
-9 -13 -37 -44 0
-9 -19 -30 -31 0
-9 -19 -30 -37 0
-9 -19 -30 -44 0
-9 -19 -31 -37 0
-9 -19 -31 -44 0
-9 -19 -37 -44 0
-9 -30 -31 -37 0
-9 -30 -31 -44 0
-9 -30 -37 -44 0
-9 -31 -37 -44 0
-13 -19 -30 -31 0
-13 -19 -30 -37 0
-13 -19 -30 -44 0
-13 -19 -31 -37 0
-13 -19 -31 -44 0
-13 -19 -37 -44 0
-13 -30 -31 -37 0
-13 -30 -31 -44 0
-13 -30 -37 -44 0
-13 -31 -37 -44 0
-19 -30 -31 -37 0
-19 -30 -31 -44 0
-19 -30 -37 -44 0
-19 -31 -37 -44 0
-30 -31 -37 -44 0
-1 -10 -17 -19 0
-1 -10 -17 -27 0
-1 -10 -17 -36 0
-1 -10 -17 -39 0
-1 -10 -17 -43 0
-1 -10 -19 -27 0
-1 -10 -19 -36 0
-1 -10 -19 -39 0
-1 -10 -19 -43 0
-1 -10 -27 -36 0
-1 -10 -27 -39 0
-1 -10 -27 -43 0
-1 -10 -36 -39 0
-1 -10 -36 -43 0
-1 -10 -39 -43 0
-1 -17 -19 -27 0
-1 -17 -19 -36 0
-1 -17 -19 -39 0
-1 -17 -19 -43 0
-1 -17 -27 -36 0
-1 -17 -27 -39 0
-1 -17 -27 -43 0
-1 -17 -36 -39 0
-1 -17 -36 -43 0
-1 -17 -39 -43 0
-1 -19 -27 -36 0
-1 -19 -27 -39 0
-1 -19 -27 -43 0
-1 -19 -36 -39 0
-1 -19 -36 -43 0
-1 -19 -39 -43 0
-1 -27 -36 -39 0
-1 -27 -36 -43 0
-1 -27 -39 -43 0
-1 -36 -39 -43 0
-10 -17 -19 -27 0
-10 -17 -19 -36 0
-10 -17 -19 -39 0
-10 -17 -19 -43 0
-10 -17 -27 -36 0
-10 -17 -27 -39 0
-10 -17 -27 -43 0
-10 -17 -36 -39 0
-10 -17 -36 -43 0
-10 -17 -39 -43 0
-10 -19 -27 -36 0
-10 -19 -27 -39 0
-10 -19 -27 -43 0
-10 -19 -36 -39 0
-10 -19 -36 -43 0
-10 -19 -39 -43 0
-10 -27 -36 -39 0
-10 -27 -36 -43 0
-10 -27 -39 -43 0
-10 -36 -39 -43 0
-17 -19 -27 -36 0
-17 -19 -27 -39 0
-17 -19 -27 -43 0
-17 -19 -36 -39 0
-17 -19 -36 -43 0
-17 -19 -39 -43 0
-17 -27 -36 -39 0
-17 -27 -36 -43 0
-17 -27 -39 -43 0
-17 -36 -39 -43 0
-19 -27 -36 -39 0
-19 -27 -36 -43 0
-19 -27 -39 -43 0
-19 -36 -39 -43 0
-27 -36 -39 -43 0
-4 -8 -17 -24 0
-4 -8 -17 -30 0
-4 -8 -17 -32 0
-4 -8 -17 -38 0
-4 -8 -17 -46 0
-4 -8 -24 -30 0
-4 -8 -24 -32 0
-4 -8 -24 -38 0
-4 -8 -24 -46 0
-4 -8 -30 -32 0
-4 -8 -30 -38 0
-4 -8 -30 -46 0
-4 -8 -32 -38 0
-4 -8 -32 -46 0
-4 -8 -38 -46 0
-4 -17 -24 -30 0
-4 -17 -24 -32 0
-4 -17 -24 -38 0
-4 -17 -24 -46 0
-4 -17 -30 -32 0
-4 -17 -30 -38 0
-4 -17 -30 -46 0
-4 -17 -32 -38 0
-4 -17 -32 -46 0
-4 -17 -38 -46 0
-4 -24 -30 -32 0
-4 -24 -30 -38 0
-4 -24 -30 -46 0
-4 -24 -32 -38 0
-4 -24 -32 -46 0
-4 -24 -38 -46 0
-4 -30 -32 -38 0
-4 -30 -32 -46 0
-4 -30 -38 -46 0
-4 -32 -38 -46 0
-8 -17 -24 -30 0
-8 -17 -24 -32 0
-8 -17 -24 -38 0
-8 -17 -24 -46 0
-8 -17 -30 -32 0
-8 -17 -30 -38 0
-8 -17 -30 -46 0
-8 -17 -32 -38 0
-8 -17 -32 -46 0
-8 -17 -38 -46 0
-8 -24 -30 -32 0
-8 -24 -30 -38 0
-8 -24 -30 -46 0
-8 -24 -32 -38 0
-8 -24 -32 -46 0
-8 -24 -38 -46 0
-8 -30 -32 -38 0
-8 -30 -32 -46 0
-8 -30 -38 -46 0
-8 -32 -38 -46 0
-17 -24 -30 -32 0
-17 -24 -30 -38 0
-17 -24 -30 -46 0
-17 -24 -32 -38 0
-17 -24 -32 -46 0
-17 -24 -38 -46 0
-17 -30 -32 -38 0
-17 -30 -32 -46 0
-17 -30 -38 -46 0
-17 -32 -38 -46 0
-24 -30 -32 -38 0
-24 -30 -32 -46 0
-24 -30 -38 -46 0
-24 -32 -38 -46 0
-30 -32 -38 -46 0
-3 -10 -16 -23 0
-3 -10 -16 -29 0
-3 -10 -16 -36 0
-3 -10 -16 -37 0
-3 -10 -16 -45 0
-3 -10 -23 -29 0
-3 -10 -23 -36 0
-3 -10 -23 -37 0
-3 -10 -23 -45 0
-3 -10 -29 -36 0
-3 -10 -29 -37 0
-3 -10 -29 -45 0
-3 -10 -36 -37 0
-3 -10 -36 -45 0
-3 -10 -37 -45 0
-3 -16 -23 -29 0
-3 -16 -23 -36 0
-3 -16 -23 -37 0
-3 -16 -23 -45 0
-3 -16 -29 -36 0
-3 -16 -29 -37 0
-3 -16 -29 -45 0
-3 -16 -36 -37 0
-3 -16 -36 -45 0
-3 -16 -37 -45 0
-3 -23 -29 -36 0
-3 -23 -29 -37 0
-3 -23 -29 -45 0
-3 -23 -36 -37 0
-3 -23 -36 -45 0
-3 -23 -37 -45 0
-3 -29 -36 -37 0
-3 -29 -36 -45 0
-3 -29 -37 -45 0
-3 -36 -37 -45 0
-10 -16 -23 -29 0
-10 -16 -23 -36 0
-10 -16 -23 -37 0
-10 -16 -23 -45 0
-10 -16 -29 -36 0
-10 -16 -29 -37 0
-10 -16 -29 -45 0
-10 -16 -36 -37 0
-10 -16 -36 -45 0
-10 -16 -37 -45 0
-10 -23 -29 -36 0
-10 -23 -29 -37 0
-10 -23 -29 -45 0
-10 -23 -36 -37 0
-10 -23 -36 -45 0
-10 -23 -37 -45 0
-10 -29 -36 -37 0
-10 -29 -36 -45 0
-10 -29 -37 -45 0
-10 -36 -37 -45 0
-16 -23 -29 -36 0
-16 -23 -29 -37 0
-16 -23 -29 -45 0
-16 -23 -36 -37 0
-16 -23 -36 -45 0
-16 -23 -37 -45 0
-16 -29 -36 -37 0
-16 -29 -36 -45 0
-16 -29 -37 -45 0
-16 -36 -37 -45 0
-23 -29 -36 -37 0
-23 -29 -36 -45 0
-23 -29 -37 -45 0
-23 -36 -37 -45 0
-29 -36 -37 -45 0
-6 -12 -15 -19 0
-6 -12 -15 -28 0
-6 -12 -15 -36 0
-6 -12 -15 -41 0
-6 -12 -15 -44 0
-6 -12 -19 -28 0
-6 -12 -19 -36 0
-6 -12 -19 -41 0
-6 -12 -19 -44 0
-6 -12 -28 -36 0
-6 -12 -28 -41 0
-6 -12 -28 -44 0
-6 -12 -36 -41 0
-6 -12 -36 -44 0
-6 -12 -41 -44 0
-6 -15 -19 -28 0
-6 -15 -19 -36 0
-6 -15 -19 -41 0
-6 -15 -19 -44 0
-6 -15 -28 -36 0
-6 -15 -28 -41 0
-6 -15 -28 -44 0
-6 -15 -36 -41 0
-6 -15 -36 -44 0
-6 -15 -41 -44 0
-6 -19 -28 -36 0
-6 -19 -28 -41 0
-6 -19 -28 -44 0
-6 -19 -36 -41 0
-6 -19 -36 -44 0
-6 -19 -41 -44 0
-6 -28 -36 -41 0
-6 -28 -36 -44 0
-6 -28 -41 -44 0
-6 -36 -41 -44 0
-12 -15 -19 -28 0
-12 -15 -19 -36 0
-12 -15 -19 -41 0
-12 -15 -19 -44 0
-12 -15 -28 -36 0
-12 -15 -28 -41 0
-12 -15 -28 -44 0
-12 -15 -36 -41 0
-12 -15 -36 -44 0
-12 -15 -41 -44 0
-12 -19 -28 -36 0
-12 -19 -28 -41 0
-12 -19 -28 -44 0
-12 -19 -36 -41 0
-12 -19 -36 -44 0
-12 -19 -41 -44 0
-12 -28 -36 -41 0
-12 -28 -36 -44 0
-12 -28 -41 -44 0
-12 -36 -41 -44 0
-15 -19 -28 -36 0
-15 -19 -28 -41 0
-15 -19 -28 -44 0
-15 -19 -36 -41 0
-15 -19 -36 -44 0
-15 -19 -41 -44 0
-15 -28 -36 -41 0
-15 -28 -36 -44 0
-15 -28 -41 -44 0
-15 -36 -41 -44 0
-19 -28 -36 -41 0
-19 -28 -36 -44 0
-19 -28 -41 -44 0
-19 -36 -41 -44 0
-28 -36 -41 -44 0
-4 -9 -18 -20 0
-4 -9 -18 -30 0
-4 -9 -18 -33 0
-4 -9 -18 -37 0
-4 -9 -18 -48 0
-4 -9 -20 -30 0
-4 -9 -20 -33 0
-4 -9 -20 -37 0
-4 -9 -20 -48 0
-4 -9 -30 -33 0
-4 -9 -30 -37 0
-4 -9 -30 -48 0
-4 -9 -33 -37 0
-4 -9 -33 -48 0
-4 -9 -37 -48 0
-4 -18 -20 -30 0
-4 -18 -20 -33 0
-4 -18 -20 -37 0
-4 -18 -20 -48 0
-4 -18 -30 -33 0
-4 -18 -30 -37 0
-4 -18 -30 -48 0
-4 -18 -33 -37 0
-4 -18 -33 -48 0
-4 -18 -37 -48 0
-4 -20 -30 -33 0
-4 -20 -30 -37 0
-4 -20 -30 -48 0
-4 -20 -33 -37 0
-4 -20 -33 -48 0
-4 -20 -37 -48 0
-4 -30 -33 -37 0
-4 -30 -33 -48 0
-4 -30 -37 -48 0
-4 -33 -37 -48 0
-9 -18 -20 -30 0
-9 -18 -20 -33 0
-9 -18 -20 -37 0
-9 -18 -20 -48 0
-9 -18 -30 -33 0
-9 -18 -30 -37 0
-9 -18 -30 -48 0
-9 -18 -33 -37 0
-9 -18 -33 -48 0
-9 -18 -37 -48 0
-9 -20 -30 -33 0
-9 -20 -30 -37 0
-9 -20 -30 -48 0
-9 -20 -33 -37 0
-9 -20 -33 -48 0
-9 -20 -37 -48 0
-9 -30 -33 -37 0
-9 -30 -33 -48 0
-9 -30 -37 -48 0
-9 -33 -37 -48 0
-18 -20 -30 -33 0
-18 -20 -30 -37 0
-18 -20 -30 -48 0
-18 -20 -33 -37 0
-18 -20 -33 -48 0
-18 -20 -37 -48 0
-18 -30 -33 -37 0
-18 -30 -33 -48 0
-18 -30 -37 -48 0
-18 -33 -37 -48 0
-20 -30 -33 -37 0
-20 -30 -33 -48 0
-20 -30 -37 -48 0
-20 -33 -37 -48 0
-30 -33 -37 -48 0
-4 -7 -16 -21 0
-4 -7 -16 -30 0
-4 -7 -16 -31 0
-4 -7 -16 -37 0
-4 -7 -16 -43 0
-4 -7 -21 -30 0
-4 -7 -21 -31 0
-4 -7 -21 -37 0
-4 -7 -21 -43 0
-4 -7 -30 -31 0
-4 -7 -30 -37 0
-4 -7 -30 -43 0
-4 -7 -31 -37 0
-4 -7 -31 -43 0
-4 -7 -37 -43 0
-4 -16 -21 -30 0
-4 -16 -21 -31 0
-4 -16 -21 -37 0
-4 -16 -21 -43 0
-4 -16 -30 -31 0
-4 -16 -30 -37 0
-4 -16 -30 -43 0
-4 -16 -31 -37 0
-4 -16 -31 -43 0
-4 -16 -37 -43 0
-4 -21 -30 -31 0
-4 -21 -30 -37 0
-4 -21 -30 -43 0
-4 -21 -31 -37 0
-4 -21 -31 -43 0
-4 -21 -37 -43 0
-4 -30 -31 -37 0
-4 -30 -31 -43 0
-4 -30 -37 -43 0
-4 -31 -37 -43 0
-7 -16 -21 -30 0
-7 -16 -21 -31 0
-7 -16 -21 -37 0
-7 -16 -21 -43 0
-7 -16 -30 -31 0
-7 -16 -30 -37 0
-7 -16 -30 -43 0
-7 -16 -31 -37 0
-7 -16 -31 -43 0
-7 -16 -37 -43 0
-7 -21 -30 -31 0
-7 -21 -30 -37 0
-7 -21 -30 -43 0
-7 -21 -31 -37 0
-7 -21 -31 -43 0
-7 -21 -37 -43 0
-7 -30 -31 -37 0
-7 -30 -31 -43 0
-7 -30 -37 -43 0
-7 -31 -37 -43 0
-16 -21 -30 -31 0
-16 -21 -30 -37 0
-16 -21 -30 -43 0
-16 -21 -31 -37 0
-16 -21 -31 -43 0
-16 -21 -37 -43 0
-16 -30 -31 -37 0
-16 -30 -31 -43 0
-16 -30 -37 -43 0
-16 -31 -37 -43 0
-21 -30 -31 -37 0
-21 -30 -31 -43 0
-21 -30 -37 -43 0
-21 -31 -37 -43 0
-30 -31 -37 -43 0
-1 -9 -13 -21 0
-1 -9 -13 -28 0
-1 -9 -13 -32 0
-1 -9 -13 -42 0
-1 -9 -13 -43 0
-1 -9 -21 -28 0
-1 -9 -21 -32 0
-1 -9 -21 -42 0
-1 -9 -21 -43 0
-1 -9 -28 -32 0
-1 -9 -28 -42 0
-1 -9 -28 -43 0
-1 -9 -32 -42 0
-1 -9 -32 -43 0
-1 -9 -42 -43 0
-1 -13 -21 -28 0
-1 -13 -21 -32 0
-1 -13 -21 -42 0
-1 -13 -21 -43 0
-1 -13 -28 -32 0
-1 -13 -28 -42 0
-1 -13 -28 -43 0
-1 -13 -32 -42 0
-1 -13 -32 -43 0
-1 -13 -42 -43 0
-1 -21 -28 -32 0
-1 -21 -28 -42 0
-1 -21 -28 -43 0
-1 -21 -32 -42 0
-1 -21 -32 -43 0
-1 -21 -42 -43 0
-1 -28 -32 -42 0
-1 -28 -32 -43 0
-1 -28 -42 -43 0
-1 -32 -42 -43 0
-9 -13 -21 -28 0
-9 -13 -21 -32 0
-9 -13 -21 -42 0
-9 -13 -21 -43 0
-9 -13 -28 -32 0
-9 -13 -28 -42 0
-9 -13 -28 -43 0
-9 -13 -32 -42 0
-9 -13 -32 -43 0
-9 -13 -42 -43 0
-9 -21 -28 -32 0
-9 -21 -28 -42 0
-9 -21 -28 -43 0
-9 -21 -32 -42 0
-9 -21 -32 -43 0
-9 -21 -42 -43 0
-9 -28 -32 -42 0
-9 -28 -32 -43 0
-9 -28 -42 -43 0
-9 -32 -42 -43 0
-13 -21 -28 -32 0
-13 -21 -28 -42 0
-13 -21 -28 -43 0
-13 -21 -32 -42 0
-13 -21 -32 -43 0
-13 -21 -42 -43 0
-13 -28 -32 -42 0
-13 -28 -32 -43 0
-13 -28 -42 -43 0
-13 -32 -42 -43 0
-21 -28 -32 -42 0
-21 -28 -32 -43 0
-21 -28 -42 -43 0
-21 -32 -42 -43 0
-28 -32 -42 -43 0
-2 -11 -13 -21 0
-2 -11 -13 -26 0
-2 -11 -13 -36 0
-2 -11 -13 -41 0
-2 -11 -13 -48 0
-2 -11 -21 -26 0
-2 -11 -21 -36 0
-2 -11 -21 -41 0
-2 -11 -21 -48 0
-2 -11 -26 -36 0
-2 -11 -26 -41 0
-2 -11 -26 -48 0
-2 -11 -36 -41 0
-2 -11 -36 -48 0
-2 -11 -41 -48 0
-2 -13 -21 -26 0
-2 -13 -21 -36 0
-2 -13 -21 -41 0
-2 -13 -21 -48 0
-2 -13 -26 -36 0
-2 -13 -26 -41 0
-2 -13 -26 -48 0
-2 -13 -36 -41 0
-2 -13 -36 -48 0
-2 -13 -41 -48 0
-2 -21 -26 -36 0
-2 -21 -26 -41 0
-2 -21 -26 -48 0
-2 -21 -36 -41 0
-2 -21 -36 -48 0
-2 -21 -41 -48 0
-2 -26 -36 -41 0
-2 -26 -36 -48 0
-2 -26 -41 -48 0
-2 -36 -41 -48 0
-11 -13 -21 -26 0
-11 -13 -21 -36 0
-11 -13 -21 -41 0
-11 -13 -21 -48 0
-11 -13 -26 -36 0
-11 -13 -26 -41 0
-11 -13 -26 -48 0
-11 -13 -36 -41 0
-11 -13 -36 -48 0
-11 -13 -41 -48 0
-11 -21 -26 -36 0
-11 -21 -26 -41 0
-11 -21 -26 -48 0
-11 -21 -36 -41 0
-11 -21 -36 -48 0
-11 -21 -41 -48 0
-11 -26 -36 -41 0
-11 -26 -36 -48 0
-11 -26 -41 -48 0
-11 -36 -41 -48 0
-13 -21 -26 -36 0
-13 -21 -26 -41 0
-13 -21 -26 -48 0
-13 -21 -36 -41 0
-13 -21 -36 -48 0
-13 -21 -41 -48 0
-13 -26 -36 -41 0
-13 -26 -36 -48 0
-13 -26 -41 -48 0
-13 -36 -41 -48 0
-21 -26 -36 -41 0
-21 -26 -36 -48 0
-21 -26 -41 -48 0
-21 -36 -41 -48 0
-26 -36 -41 -48 0
-6 -11 -14 -23 0
-6 -11 -14 -27 0
-6 -11 -14 -31 0
-6 -11 -14 -42 0
-6 -11 -14 -47 0
-6 -11 -23 -27 0
-6 -11 -23 -31 0
-6 -11 -23 -42 0
-6 -11 -23 -47 0
-6 -11 -27 -31 0
-6 -11 -27 -42 0
-6 -11 -27 -47 0
-6 -11 -31 -42 0
-6 -11 -31 -47 0
-6 -11 -42 -47 0
-6 -14 -23 -27 0
-6 -14 -23 -31 0
-6 -14 -23 -42 0
-6 -14 -23 -47 0
-6 -14 -27 -31 0
-6 -14 -27 -42 0
-6 -14 -27 -47 0
-6 -14 -31 -42 0
-6 -14 -31 -47 0
-6 -14 -42 -47 0
-6 -23 -27 -31 0
-6 -23 -27 -42 0
-6 -23 -27 -47 0
-6 -23 -31 -42 0
-6 -23 -31 -47 0
-6 -23 -42 -47 0
-6 -27 -31 -42 0
-6 -27 -31 -47 0
-6 -27 -42 -47 0
-6 -31 -42 -47 0
-11 -14 -23 -27 0
-11 -14 -23 -31 0
-11 -14 -23 -42 0
-11 -14 -23 -47 0
-11 -14 -27 -31 0
-11 -14 -27 -42 0
-11 -14 -27 -47 0
-11 -14 -31 -42 0
-11 -14 -31 -47 0
-11 -14 -42 -47 0
-11 -23 -27 -31 0
-11 -23 -27 -42 0
-11 -23 -27 -47 0
-11 -23 -31 -42 0
-11 -23 -31 -47 0
-11 -23 -42 -47 0
-11 -27 -31 -42 0
-11 -27 -31 -47 0
-11 -27 -42 -47 0
-11 -31 -42 -47 0
-14 -23 -27 -31 0
-14 -23 -27 -42 0
-14 -23 -27 -47 0
-14 -23 -31 -42 0
-14 -23 -31 -47 0
-14 -23 -42 -47 0
-14 -27 -31 -42 0
-14 -27 -31 -47 0
-14 -27 -42 -47 0
-14 -31 -42 -47 0
-23 -27 -31 -42 0
-23 -27 -31 -47 0
-23 -27 -42 -47 0
-23 -31 -42 -47 0
-27 -31 -42 -47 0
-4 -11 -14 -21 0
-4 -11 -14 -29 0
-4 -11 -14 -36 0
-4 -11 -14 -39 0
-4 -11 -14 -44 0
-4 -11 -21 -29 0
-4 -11 -21 -36 0
-4 -11 -21 -39 0
-4 -11 -21 -44 0
-4 -11 -29 -36 0
-4 -11 -29 -39 0
-4 -11 -29 -44 0
-4 -11 -36 -39 0
-4 -11 -36 -44 0
-4 -11 -39 -44 0
-4 -14 -21 -29 0
-4 -14 -21 -36 0
-4 -14 -21 -39 0
-4 -14 -21 -44 0
-4 -14 -29 -36 0
-4 -14 -29 -39 0
-4 -14 -29 -44 0
-4 -14 -36 -39 0
-4 -14 -36 -44 0
-4 -14 -39 -44 0
-4 -21 -29 -36 0
-4 -21 -29 -39 0
-4 -21 -29 -44 0
-4 -21 -36 -39 0
-4 -21 -36 -44 0
-4 -21 -39 -44 0
-4 -29 -36 -39 0
-4 -29 -36 -44 0
-4 -29 -39 -44 0
-4 -36 -39 -44 0
-11 -14 -21 -29 0
-11 -14 -21 -36 0
-11 -14 -21 -39 0
-11 -14 -21 -44 0
-11 -14 -29 -36 0
-11 -14 -29 -39 0
-11 -14 -29 -44 0
-11 -14 -36 -39 0
-11 -14 -36 -44 0
-11 -14 -39 -44 0
-11 -21 -29 -36 0
-11 -21 -29 -39 0
-11 -21 -29 -44 0
-11 -21 -36 -39 0
-11 -21 -36 -44 0
-11 -21 -39 -44 0
-11 -29 -36 -39 0
-11 -29 -36 -44 0
-11 -29 -39 -44 0
-11 -36 -39 -44 0
-14 -21 -29 -36 0
-14 -21 -29 -39 0
-14 -21 -29 -44 0
-14 -21 -36 -39 0
-14 -21 -36 -44 0
-14 -21 -39 -44 0
-14 -29 -36 -39 0
-14 -29 -36 -44 0
-14 -29 -39 -44 0
-14 -36 -39 -44 0
-21 -29 -36 -39 0
-21 -29 -36 -44 0
-21 -29 -39 -44 0
-21 -36 -39 -44 0
-29 -36 -39 -44 0
-1 -10 -18 -21 0
-1 -10 -18 -28 0
-1 -10 -18 -33 0
-1 -10 -18 -42 0
-1 -10 -18 -45 0
-1 -10 -21 -28 0
-1 -10 -21 -33 0
-1 -10 -21 -42 0
-1 -10 -21 -45 0
-1 -10 -28 -33 0
-1 -10 -28 -42 0
-1 -10 -28 -45 0
-1 -10 -33 -42 0
-1 -10 -33 -45 0
-1 -10 -42 -45 0
-1 -18 -21 -28 0
-1 -18 -21 -33 0
-1 -18 -21 -42 0
-1 -18 -21 -45 0
-1 -18 -28 -33 0
-1 -18 -28 -42 0
-1 -18 -28 -45 0
-1 -18 -33 -42 0
-1 -18 -33 -45 0
-1 -18 -42 -45 0
-1 -21 -28 -33 0
-1 -21 -28 -42 0
-1 -21 -28 -45 0
-1 -21 -33 -42 0
-1 -21 -33 -45 0
-1 -21 -42 -45 0
-1 -28 -33 -42 0
-1 -28 -33 -45 0
-1 -28 -42 -45 0
-1 -33 -42 -45 0
-10 -18 -21 -28 0
-10 -18 -21 -33 0
-10 -18 -21 -42 0
-10 -18 -21 -45 0
-10 -18 -28 -33 0
-10 -18 -28 -42 0
-10 -18 -28 -45 0
-10 -18 -33 -42 0
-10 -18 -33 -45 0
-10 -18 -42 -45 0
-10 -21 -28 -33 0
-10 -21 -28 -42 0
-10 -21 -28 -45 0
-10 -21 -33 -42 0
-10 -21 -33 -45 0
-10 -21 -42 -45 0
-10 -28 -33 -42 0
-10 -28 -33 -45 0
-10 -28 -42 -45 0
-10 -33 -42 -45 0
-18 -21 -28 -33 0
-18 -21 -28 -42 0
-18 -21 -28 -45 0
-18 -21 -33 -42 0
-18 -21 -33 -45 0
-18 -21 -42 -45 0
-18 -28 -33 -42 0
-18 -28 -33 -45 0
-18 -28 -42 -45 0
-18 -33 -42 -45 0
-21 -28 -33 -42 0
-21 -28 -33 -45 0
-21 -28 -42 -45 0
-21 -33 -42 -45 0
-28 -33 -42 -45 0
-5 -12 -15 -24 0
-5 -12 -15 -25 0
-5 -12 -15 -34 0
-5 -12 -15 -41 0
-5 -12 -15 -45 0
-5 -12 -24 -25 0
-5 -12 -24 -34 0
-5 -12 -24 -41 0
-5 -12 -24 -45 0
-5 -12 -25 -34 0
-5 -12 -25 -41 0
-5 -12 -25 -45 0
-5 -12 -34 -41 0
-5 -12 -34 -45 0
-5 -12 -41 -45 0
-5 -15 -24 -25 0
-5 -15 -24 -34 0
-5 -15 -24 -41 0
-5 -15 -24 -45 0
-5 -15 -25 -34 0
-5 -15 -25 -41 0
-5 -15 -25 -45 0
-5 -15 -34 -41 0
-5 -15 -34 -45 0
-5 -15 -41 -45 0
-5 -24 -25 -34 0
-5 -24 -25 -41 0
-5 -24 -25 -45 0
-5 -24 -34 -41 0
-5 -24 -34 -45 0
-5 -24 -41 -45 0
-5 -25 -34 -41 0
-5 -25 -34 -45 0
-5 -25 -41 -45 0
-5 -34 -41 -45 0
-12 -15 -24 -25 0
-12 -15 -24 -34 0
-12 -15 -24 -41 0
-12 -15 -24 -45 0
-12 -15 -25 -34 0
-12 -15 -25 -41 0
-12 -15 -25 -45 0
-12 -15 -34 -41 0
-12 -15 -34 -45 0
-12 -15 -41 -45 0
-12 -24 -25 -34 0
-12 -24 -25 -41 0
-12 -24 -25 -45 0
-12 -24 -34 -41 0
-12 -24 -34 -45 0
-12 -24 -41 -45 0
-12 -25 -34 -41 0
-12 -25 -34 -45 0
-12 -25 -41 -45 0
-12 -34 -41 -45 0
-15 -24 -25 -34 0
-15 -24 -25 -41 0
-15 -24 -25 -45 0
-15 -24 -34 -41 0
-15 -24 -34 -45 0
-15 -24 -41 -45 0
-15 -25 -34 -41 0
-15 -25 -34 -45 0
-15 -25 -41 -45 0
-15 -34 -41 -45 0
-24 -25 -34 -41 0
-24 -25 -34 -45 0
-24 -25 -41 -45 0
-24 -34 -41 -45 0
-25 -34 -41 -45 0
-1 -7 -18 -21 0
-1 -7 -18 -27 0
-1 -7 -18 -35 0
-1 -7 -18 -39 0
-1 -7 -18 -47 0
-1 -7 -21 -27 0
-1 -7 -21 -35 0
-1 -7 -21 -39 0
-1 -7 -21 -47 0
-1 -7 -27 -35 0
-1 -7 -27 -39 0
-1 -7 -27 -47 0
-1 -7 -35 -39 0
-1 -7 -35 -47 0
-1 -7 -39 -47 0
-1 -18 -21 -27 0
-1 -18 -21 -35 0
-1 -18 -21 -39 0
-1 -18 -21 -47 0
-1 -18 -27 -35 0
-1 -18 -27 -39 0
-1 -18 -27 -47 0
-1 -18 -35 -39 0
-1 -18 -35 -47 0
-1 -18 -39 -47 0
-1 -21 -27 -35 0
-1 -21 -27 -39 0
-1 -21 -27 -47 0
-1 -21 -35 -39 0
-1 -21 -35 -47 0
-1 -21 -39 -47 0
-1 -27 -35 -39 0
-1 -27 -35 -47 0
-1 -27 -39 -47 0
-1 -35 -39 -47 0
-7 -18 -21 -27 0
-7 -18 -21 -35 0
-7 -18 -21 -39 0
-7 -18 -21 -47 0
-7 -18 -27 -35 0
-7 -18 -27 -39 0
-7 -18 -27 -47 0
-7 -18 -35 -39 0
-7 -18 -35 -47 0
-7 -18 -39 -47 0
-7 -21 -27 -35 0
-7 -21 -27 -39 0
-7 -21 -27 -47 0
-7 -21 -35 -39 0
-7 -21 -35 -47 0
-7 -21 -39 -47 0
-7 -27 -35 -39 0
-7 -27 -35 -47 0
-7 -27 -39 -47 0
-7 -35 -39 -47 0
-18 -21 -27 -35 0
-18 -21 -27 -39 0
-18 -21 -27 -47 0
-18 -21 -35 -39 0
-18 -21 -35 -47 0
-18 -21 -39 -47 0
-18 -27 -35 -39 0
-18 -27 -35 -47 0
-18 -27 -39 -47 0
-18 -35 -39 -47 0
-21 -27 -35 -39 0
-21 -27 -35 -47 0
-21 -27 -39 -47 0
-21 -35 -39 -47 0
-27 -35 -39 -47 0
-5 -11 -18 -24 0
-5 -11 -18 -28 0
-5 -11 -18 -33 0
-5 -11 -18 -40 0
-5 -11 -18 -47 0
-5 -11 -24 -28 0
-5 -11 -24 -33 0
-5 -11 -24 -40 0
-5 -11 -24 -47 0
-5 -11 -28 -33 0
-5 -11 -28 -40 0
-5 -11 -28 -47 0
-5 -11 -33 -40 0
-5 -11 -33 -47 0
-5 -11 -40 -47 0
-5 -18 -24 -28 0
-5 -18 -24 -33 0
-5 -18 -24 -40 0
-5 -18 -24 -47 0
-5 -18 -28 -33 0
-5 -18 -28 -40 0
-5 -18 -28 -47 0
-5 -18 -33 -40 0
-5 -18 -33 -47 0
-5 -18 -40 -47 0
-5 -24 -28 -33 0
-5 -24 -28 -40 0
-5 -24 -28 -47 0
-5 -24 -33 -40 0
-5 -24 -33 -47 0
-5 -24 -40 -47 0
-5 -28 -33 -40 0
-5 -28 -33 -47 0
-5 -28 -40 -47 0
-5 -33 -40 -47 0
-11 -18 -24 -28 0
-11 -18 -24 -33 0
-11 -18 -24 -40 0
-11 -18 -24 -47 0
-11 -18 -28 -33 0
-11 -18 -28 -40 0
-11 -18 -28 -47 0
-11 -18 -33 -40 0
-11 -18 -33 -47 0
-11 -18 -40 -47 0
-11 -24 -28 -33 0
-11 -24 -28 -40 0
-11 -24 -28 -47 0
-11 -24 -33 -40 0
-11 -24 -33 -47 0
-11 -24 -40 -47 0
-11 -28 -33 -40 0
-11 -28 -33 -47 0
-11 -28 -40 -47 0
-11 -33 -40 -47 0
-18 -24 -28 -33 0
-18 -24 -28 -40 0
-18 -24 -28 -47 0
-18 -24 -33 -40 0
-18 -24 -33 -47 0
-18 -24 -40 -47 0
-18 -28 -33 -40 0
-18 -28 -33 -47 0
-18 -28 -40 -47 0
-18 -33 -40 -47 0
-24 -28 -33 -40 0
-24 -28 -33 -47 0
-24 -28 -40 -47 0
-24 -33 -40 -47 0
-28 -33 -40 -47 0
-6 -10 -13 -23 0
-6 -10 -13 -29 0
-6 -10 -13 -32 0
-6 -10 -13 -38 0
-6 -10 -13 -43 0
-6 -10 -23 -29 0
-6 -10 -23 -32 0
-6 -10 -23 -38 0
-6 -10 -23 -43 0
-6 -10 -29 -32 0
-6 -10 -29 -38 0
-6 -10 -29 -43 0
-6 -10 -32 -38 0
-6 -10 -32 -43 0
-6 -10 -38 -43 0
-6 -13 -23 -29 0
-6 -13 -23 -32 0
-6 -13 -23 -38 0
-6 -13 -23 -43 0
-6 -13 -29 -32 0
-6 -13 -29 -38 0
-6 -13 -29 -43 0
-6 -13 -32 -38 0
-6 -13 -32 -43 0
-6 -13 -38 -43 0
-6 -23 -29 -32 0
-6 -23 -29 -38 0
-6 -23 -29 -43 0
-6 -23 -32 -38 0
-6 -23 -32 -43 0
-6 -23 -38 -43 0
-6 -29 -32 -38 0
-6 -29 -32 -43 0
-6 -29 -38 -43 0
-6 -32 -38 -43 0
-10 -13 -23 -29 0
-10 -13 -23 -32 0
-10 -13 -23 -38 0
-10 -13 -23 -43 0
-10 -13 -29 -32 0
-10 -13 -29 -38 0
-10 -13 -29 -43 0
-10 -13 -32 -38 0
-10 -13 -32 -43 0
-10 -13 -38 -43 0
-10 -23 -29 -32 0
-10 -23 -29 -38 0
-10 -23 -29 -43 0
-10 -23 -32 -38 0
-10 -23 -32 -43 0
-10 -23 -38 -43 0
-10 -29 -32 -38 0
-10 -29 -32 -43 0
-10 -29 -38 -43 0
-10 -32 -38 -43 0
-13 -23 -29 -32 0
-13 -23 -29 -38 0
-13 -23 -29 -43 0
-13 -23 -32 -38 0
-13 -23 -32 -43 0
-13 -23 -38 -43 0
-13 -29 -32 -38 0
-13 -29 -32 -43 0
-13 -29 -38 -43 0
-13 -32 -38 -43 0
-23 -29 -32 -38 0
-23 -29 -32 -43 0
-23 -29 -38 -43 0
-23 -32 -38 -43 0
-29 -32 -38 -43 0
