p cnf 78 1149
1 2 3 4 5 6 7 8 9 10 11 12 13 0
-1 -2 0
-1 -3 0
-1 -4 0
-1 -5 0
-1 -6 0
-1 -7 0
-1 -8 0
-1 -9 0
-1 -10 0
-1 -11 0
-1 -12 0
-1 -13 0
-2 -3 0
-2 -4 0
-2 -5 0
-2 -6 0
-2 -7 0
-2 -8 0
-2 -9 0
-2 -10 0
-2 -11 0
-2 -12 0
-2 -13 0
-3 -4 0
-3 -5 0
-3 -6 0
-3 -7 0
-3 -8 0
-3 -9 0
-3 -10 0
-3 -11 0
-3 -12 0
-3 -13 0
-4 -5 0
-4 -6 0
-4 -7 0
-4 -8 0
-4 -9 0
-4 -10 0
-4 -11 0
-4 -12 0
-4 -13 0
-5 -6 0
-5 -7 0
-5 -8 0
-5 -9 0
-5 -10 0
-5 -11 0
-5 -12 0
-5 -13 0
-6 -7 0
-6 -8 0
-6 -9 0
-6 -10 0
-6 -11 0
-6 -12 0
-6 -13 0
-7 -8 0
-7 -9 0
-7 -10 0
-7 -11 0
-7 -12 0
-7 -13 0
-8 -9 0
-8 -10 0
-8 -11 0
-8 -12 0
-8 -13 0
-9 -10 0
-9 -11 0
-9 -12 0
-9 -13 0
-10 -11 0
-10 -12 0
-10 -13 0
-11 -12 0
-11 -13 0
-12 -13 0
14 15 16 17 18 19 20 21 22 23 24 25 26 0
-14 -15 0
-14 -16 0
-14 -17 0
-14 -18 0
-14 -19 0
-14 -20 0
-14 -21 0
-14 -22 0
-14 -23 0
-14 -24 0
-14 -25 0
-14 -26 0
-15 -16 0
-15 -17 0
-15 -18 0
-15 -19 0
-15 -20 0
-15 -21 0
-15 -22 0
-15 -23 0
-15 -24 0
-15 -25 0
-15 -26 0
-16 -17 0
-16 -18 0
-16 -19 0
-16 -20 0
-16 -21 0
-16 -22 0
-16 -23 0
-16 -24 0
-16 -25 0
-16 -26 0
-17 -18 0
-17 -19 0
-17 -20 0
-17 -21 0
-17 -22 0
-17 -23 0
-17 -24 0
-17 -25 0
-17 -26 0
-18 -19 0
-18 -20 0
-18 -21 0
-18 -22 0
-18 -23 0
-18 -24 0
-18 -25 0
-18 -26 0
-19 -20 0
-19 -21 0
-19 -22 0
-19 -23 0
-19 -24 0
-19 -25 0
-19 -26 0
-20 -21 0
-20 -22 0
-20 -23 0
-20 -24 0
-20 -25 0
-20 -26 0
-21 -22 0
-21 -23 0
-21 -24 0
-21 -25 0
-21 -26 0
-22 -23 0
-22 -24 0
-22 -25 0
-22 -26 0
-23 -24 0
-23 -25 0
-23 -26 0
-24 -25 0
-24 -26 0
-25 -26 0
27 28 29 30 31 32 33 34 35 36 37 38 39 0
-27 -28 0
-27 -29 0
-27 -30 0
-27 -31 0
-27 -32 0
-27 -33 0
-27 -34 0
-27 -35 0
-27 -36 0
-27 -37 0
-27 -38 0
-27 -39 0
-28 -29 0
-28 -30 0
-28 -31 0
-28 -32 0
-28 -33 0
-28 -34 0
-28 -35 0
-28 -36 0
-28 -37 0
-28 -38 0
-28 -39 0
-29 -30 0
-29 -31 0
-29 -32 0
-29 -33 0
-29 -34 0
-29 -35 0
-29 -36 0
-29 -37 0
-29 -38 0
-29 -39 0
-30 -31 0
-30 -32 0
-30 -33 0
-30 -34 0
-30 -35 0
-30 -36 0
-30 -37 0
-30 -38 0
-30 -39 0
-31 -32 0
-31 -33 0
-31 -34 0
-31 -35 0
-31 -36 0
-31 -37 0
-31 -38 0
-31 -39 0
-32 -33 0
-32 -34 0
-32 -35 0
-32 -36 0
-32 -37 0
-32 -38 0
-32 -39 0
-33 -34 0
-33 -35 0
-33 -36 0
-33 -37 0
-33 -38 0
-33 -39 0
-34 -35 0
-34 -36 0
-34 -37 0
-34 -38 0
-34 -39 0
-35 -36 0
-35 -37 0
-35 -38 0
-35 -39 0
-36 -37 0
-36 -38 0
-36 -39 0
-37 -38 0
-37 -39 0
-38 -39 0
40 41 42 43 44 45 46 47 48 49 50 51 52 0
-40 -41 0
-40 -42 0
-40 -43 0
-40 -44 0
-40 -45 0
-40 -46 0
-40 -47 0
-40 -48 0
-40 -49 0
-40 -50 0
-40 -51 0
-40 -52 0
-41 -42 0
-41 -43 0
-41 -44 0
-41 -45 0
-41 -46 0
-41 -47 0
-41 -48 0
-41 -49 0
-41 -50 0
-41 -51 0
-41 -52 0
-42 -43 0
-42 -44 0
-42 -45 0
-42 -46 0
-42 -47 0
-42 -48 0
-42 -49 0
-42 -50 0
-42 -51 0
-42 -52 0
-43 -44 0
-43 -45 0
-43 -46 0
-43 -47 0
-43 -48 0
-43 -49 0
-43 -50 0
-43 -51 0
-43 -52 0
-44 -45 0
-44 -46 0
-44 -47 0
-44 -48 0
-44 -49 0
-44 -50 0
-44 -51 0
-44 -52 0
-45 -46 0
-45 -47 0
-45 -48 0
-45 -49 0
-45 -50 0
-45 -51 0
-45 -52 0
-46 -47 0
-46 -48 0
-46 -49 0
-46 -50 0
-46 -51 0
-46 -52 0
-47 -48 0
-47 -49 0
-47 -50 0
-47 -51 0
-47 -52 0
-48 -49 0
-48 -50 0
-48 -51 0
-48 -52 0
-49 -50 0
-49 -51 0
-49 -52 0
-50 -51 0
-50 -52 0
-51 -52 0
53 54 55 56 57 58 59 60 61 62 63 64 65 0
-53 -54 0
-53 -55 0
-53 -56 0
-53 -57 0
-53 -58 0
-53 -59 0
-53 -60 0
-53 -61 0
-53 -62 0
-53 -63 0
-53 -64 0
-53 -65 0
-54 -55 0
-54 -56 0
-54 -57 0
-54 -58 0
-54 -59 0
-54 -60 0
-54 -61 0
-54 -62 0
-54 -63 0
-54 -64 0
-54 -65 0
-55 -56 0
-55 -57 0
-55 -58 0
-55 -59 0
-55 -60 0
-55 -61 0
-55 -62 0
-55 -63 0
-55 -64 0
-55 -65 0
-56 -57 0
-56 -58 0
-56 -59 0
-56 -60 0
-56 -61 0
-56 -62 0
-56 -63 0
-56 -64 0
-56 -65 0
-57 -58 0
-57 -59 0
-57 -60 0
-57 -61 0
-57 -62 0
-57 -63 0
-57 -64 0
-57 -65 0
-58 -59 0
-58 -60 0
-58 -61 0
-58 -62 0
-58 -63 0
-58 -64 0
-58 -65 0
-59 -60 0
-59 -61 0
-59 -62 0
-59 -63 0
-59 -64 0
-59 -65 0
-60 -61 0
-60 -62 0
-60 -63 0
-60 -64 0
-60 -65 0
-61 -62 0
-61 -63 0
-61 -64 0
-61 -65 0
-62 -63 0
-62 -64 0
-62 -65 0
-63 -64 0
-63 -65 0
-64 -65 0
66 67 68 69 70 71 72 73 74 75 76 77 78 0
-66 -67 0
-66 -68 0
-66 -69 0
-66 -70 0
-66 -71 0
-66 -72 0
-66 -73 0
-66 -74 0
-66 -75 0
-66 -76 0
-66 -77 0
-66 -78 0
-67 -68 0
-67 -69 0
-67 -70 0
-67 -71 0
-67 -72 0
-67 -73 0
-67 -74 0
-67 -75 0
-67 -76 0
-67 -77 0
-67 -78 0
-68 -69 0
-68 -70 0
-68 -71 0
-68 -72 0
-68 -73 0
-68 -74 0
-68 -75 0
-68 -76 0
-68 -77 0
-68 -78 0
-69 -70 0
-69 -71 0
-69 -72 0
-69 -73 0
-69 -74 0
-69 -75 0
-69 -76 0
-69 -77 0
-69 -78 0
-70 -71 0
-70 -72 0
-70 -73 0
-70 -74 0
-70 -75 0
-70 -76 0
-70 -77 0
-70 -78 0
-71 -72 0
-71 -73 0
-71 -74 0
-71 -75 0
-71 -76 0
-71 -77 0
-71 -78 0
-72 -73 0
-72 -74 0
-72 -75 0
-72 -76 0
-72 -77 0
-72 -78 0
-73 -74 0
-73 -75 0
-73 -76 0
-73 -77 0
-73 -78 0
-74 -75 0
-74 -76 0
-74 -77 0
-74 -78 0
-75 -76 0
-75 -77 0
-75 -78 0
-76 -77 0
-76 -78 0
-77 -78 0
-2 -20 0
-2 -37 0
-2 -52 0
-2 -64 0
-2 -73 0
-20 -37 0
-20 -52 0
-20 -64 0
-20 -73 0
-37 -52 0
-37 -64 0
-37 -73 0
-52 -64 0
-52 -73 0
-64 -73 0
-9 -15 0
-9 -30 0
-9 -49 0
-9 -65 0
-9 -75 0
-15 -30 0
-15 -49 0
-15 -65 0
-15 -75 0
-30 -49 0
-30 -65 0
-30 -75 0
-49 -65 0
-49 -75 0
-65 -75 0
-1 -14 0
-1 -33 0
-1 -45 0
-1 -55 0
-1 -78 0
-14 -33 0
-14 -45 0
-14 -55 0
-14 -78 0
-33 -45 0
-33 -55 0
-33 -78 0
-45 -55 0
-45 -78 0
-55 -78 0
-10 -21 0
-10 -32 0
-10 -40 0
-10 -54 0
-10 -74 0
-21 -32 0
-21 -40 0
-21 -54 0
-21 -74 0
-32 -40 0
-32 -54 0
-32 -74 0
-40 -54 0
-40 -74 0
-54 -74 0
-3 -14 0
-3 -29 0
-3 -50 0
-3 -61 0
-3 -67 0
-14 -29 0
-14 -50 0
-14 -61 0
-14 -67 0
-29 -50 0
-29 -61 0
-29 -67 0
-50 -61 0
-50 -67 0
-61 -67 0
-13 -19 0
-13 -36 0
-13 -52 0
-13 -64 0
-13 -66 0
-19 -36 0
-19 -52 0
-19 -64 0
-19 -66 0
-36 -52 0
-36 -64 0
-36 -66 0
-52 -64 0
-52 -66 0
-64 -66 0
-5 -22 0
-5 -38 0
-5 -40 0
-5 -60 0
-5 -71 0
-22 -38 0
-22 -40 0
-22 -60 0
-22 -71 0
-38 -40 0
-38 -60 0
-38 -71 0
-40 -60 0
-40 -71 0
-60 -71 0
-6 -23 0
-6 -33 0
-6 -41 0
-6 -61 0
-6 -78 0
-23 -33 0
-23 -41 0
-23 -61 0
-23 -78 0
-33 -41 0
-33 -61 0
-33 -78 0
-41 -61 0
-41 -78 0
-61 -78 0
-2 -25 0
-2 -31 0
-2 -52 0
-2 -63 0
-2 -66 0
-25 -31 0
-25 -52 0
-25 -63 0
-25 -66 0
-31 -52 0
-31 -63 0
-31 -66 0
-52 -63 0
-52 -66 0
-63 -66 0
-10 -17 0
-10 -32 0
-10 -46 0
-10 -60 0
-10 -72 0
-17 -32 0
-17 -46 0
-17 -60 0
-17 -72 0
-32 -46 0
-32 -60 0
-32 -72 0
-46 -60 0
-46 -72 0
-60 -72 0
-7 -21 0
-7 -27 0
-7 -46 0
-7 -56 0
-7 -71 0
-21 -27 0
-21 -46 0
-21 -56 0
-21 -71 0
-27 -46 0
-27 -56 0
-27 -71 0
-46 -56 0
-46 -71 0
-56 -71 0
-12 -18 0
-12 -39 0
-12 -51 0
-12 -65 0
-12 -76 0
-18 -39 0
-18 -51 0
-18 -65 0
-18 -76 0
-39 -51 0
-39 -65 0
-39 -76 0
-51 -65 0
-51 -76 0
-65 -76 0
-2 -19 0
-2 -31 0
-2 -47 0
-2 -59 0
-2 -73 0
-19 -31 0
-19 -47 0
-19 -59 0
-19 -73 0
-31 -47 0
-31 -59 0
-31 -73 0
-47 -59 0
-47 -73 0
-59 -73 0
-11 -22 0
-11 -28 0
-11 -46 0
-11 -58 0
-11 -74 0
-22 -28 0
-22 -46 0
-22 -58 0
-22 -74 0
-28 -46 0
-28 -58 0
-28 -74 0
-46 -58 0
-46 -74 0
-58 -74 0
-6 -14 0
-6 -34 0
-6 -41 0
-6 -53 0
-6 -69 0
-14 -34 0
-14 -41 0
-14 -53 0
-14 -69 0
-34 -41 0
-34 -53 0
-34 -69 0
-41 -53 0
-41 -69 0
-53 -69 0
-3 -16 0
-3 -33 0
-3 -50 0
-3 -53 0
-3 -78 0
-16 -33 0
-16 -50 0
-16 -53 0
-16 -78 0
-33 -50 0
-33 -53 0
-33 -78 0
-50 -53 0
-50 -78 0
-53 -78 0
-11 -17 0
-11 -28 0
-11 -42 0
-11 -54 0
-11 -71 0
-17 -28 0
-17 -42 0
-17 -54 0
-17 -71 0
-28 -42 0
-28 -54 0
-28 -71 0
-42 -54 0
-42 -71 0
-54 -71 0
-7 -22 0
-7 -27 0
-7 -43 0
-7 -54 0
-7 -72 0
-22 -27 0
-22 -43 0
-22 -54 0
-22 -72 0
-27 -43 0
-27 -54 0
-27 -72 0
-43 -54 0
-43 -72 0
-54 -72 0
-7 -24 0
-7 -27 0
-7 -42 0
-7 -60 0
-7 -74 0
-24 -27 0
-24 -42 0
-24 -60 0
-24 -74 0
-27 -42 0
-27 -60 0
-27 -74 0
-42 -60 0
-42 -74 0
-60 -74 0
-1 -23 0
-1 -29 0
-1 -45 0
-1 -53 0
-1 -67 0
-23 -29 0
-23 -45 0
-23 -53 0
-23 -67 0
-29 -45 0
-29 -53 0
-29 -67 0
-45 -53 0
-45 -67 0
-53 -67 0
-6 -16 0
-6 -29 0
-6 -41 0
-6 -55 0
-6 -67 0
-16 -29 0
-16 -41 0
-16 -55 0
-16 -67 0
-29 -41 0
-29 -55 0
-29 -67 0
-41 -55 0
-41 -67 0
-55 -67 0
-11 -21 0
-11 -28 0
-11 -43 0
-11 -60 0
-11 -77 0
-21 -28 0
-21 -43 0
-21 -60 0
-21 -77 0
-28 -43 0
-28 -60 0
-28 -77 0
-43 -60 0
-43 -77 0
-60 -77 0
-5 -21 0
-5 -38 0
-5 -42 0
-5 -58 0
-5 -72 0
-21 -38 0
-21 -42 0
-21 -58 0
-21 -72 0
-38 -42 0
-38 -58 0
-38 -72 0
-42 -58 0
-42 -72 0
-58 -72 0
-12 -26 0
-12 -30 0
-12 -49 0
-12 -57 0
-12 -76 0
-26 -30 0
-26 -49 0
-26 -57 0
-26 -76 0
-30 -49 0
-30 -57 0
-30 -76 0
-49 -57 0
-49 -76 0
-57 -76 0
-4 -25 0
-4 -37 0
-4 -47 0
-4 -64 0
-4 -66 0
-25 -37 0
-25 -47 0
-25 -64 0
-25 -66 0
-37 -47 0
-37 -64 0
-37 -66 0
-47 -64 0
-47 -66 0
-64 -66 0
-13 -20 0
-13 -36 0
-13 -47 0
-13 -63 0
-13 -70 0
-20 -36 0
-20 -47 0
-20 -63 0
-20 -70 0
-36 -47 0
-36 -63 0
-36 -70 0
-47 -63 0
-47 -70 0
-63 -70 0
-4 -19 0
-4 -37 0
-4 -48 0
-4 -63 0
-4 -73 0
-19 -37 0
-19 -48 0
-19 -63 0
-19 -73 0
-37 -48 0
-37 -63 0
-37 -73 0
-48 -63 0
-48 -73 0
-63 -73 0
-10 -24 0
-10 -32 0
-10 -43 0
-10 -58 0
-10 -71 0
-24 -32 0
-24 -43 0
-24 -58 0
-24 -71 0
-32 -43 0
-32 -58 0
-32 -71 0
-43 -58 0
-43 -71 0
-58 -71 0
-12 -15 0
-12 -35 0
-12 -44 0
-12 -62 0
-12 -76 0
-15 -35 0
-15 -44 0
-15 -62 0
-15 -76 0
-35 -44 0
-35 -62 0
-35 -76 0
-44 -62 0
-44 -76 0
-62 -76 0
-1 -16 0
-1 -34 0
-1 -45 0
-1 -61 0
-1 -69 0
-16 -34 0
-16 -45 0
-16 -61 0
-16 -69 0
-34 -45 0
-34 -61 0
-34 -69 0
-45 -61 0
-45 -69 0
-61 -69 0
-9 -18 0
-9 -35 0
-9 -44 0
-9 -57 0
-9 -75 0
-18 -35 0
-18 -44 0
-18 -57 0
-18 -75 0
-35 -44 0
-35 -57 0
-35 -75 0
-44 -57 0
-44 -75 0
-57 -75 0
-7 -17 0
-7 -27 0
-7 -40 0
-7 -58 0
-7 -77 0
-17 -27 0
-17 -40 0
-17 -58 0
-17 -77 0
-27 -40 0
-27 -58 0
-27 -77 0
-40 -58 0
-40 -77 0
-58 -77 0
-3 -23 0
-3 -34 0
-3 -50 0
-3 -55 0
-3 -69 0
-23 -34 0
-23 -50 0
-23 -55 0
-23 -69 0
-34 -50 0
-34 -55 0
-34 -69 0
-50 -55 0
-50 -69 0
-55 -69 0
-9 -26 0
-9 -39 0
-9 -51 0
-9 -62 0
-9 -75 0
-26 -39 0
-26 -51 0
-26 -62 0
-26 -75 0
-39 -51 0
-39 -62 0
-39 -75 0
-51 -62 0
-51 -75 0
-62 -75 0
-4 -20 0
-4 -31 0
-4 -48 0
-4 -59 0
-4 -66 0
-20 -31 0
-20 -48 0
-20 -59 0
-20 -66 0
-31 -48 0
-31 -59 0
-31 -66 0
-48 -59 0
-48 -66 0
-59 -66 0
-11 -24 0
-11 -28 0
-11 -40 0
-11 -56 0
-11 -72 0
-24 -28 0
-24 -40 0
-24 -56 0
-24 -72 0
-28 -40 0
-28 -56 0
-28 -72 0
-40 -56 0
-40 -72 0
-56 -72 0
-5 -17 0
-5 -38 0
-5 -43 0
-5 -56 0
-5 -74 0
-17 -38 0
-17 -43 0
-17 -56 0
-17 -74 0
-38 -43 0
-38 -56 0
-38 -74 0
-43 -56 0
-43 -74 0
-56 -74 0
-10 -22 0
-10 -32 0
-10 -42 0
-10 -56 0
-10 -77 0
-22 -32 0
-22 -42 0
-22 -56 0
-22 -77 0
-32 -42 0
-32 -56 0
-32 -77 0
-42 -56 0
-42 -77 0
-56 -77 0
-13 -25 0
-13 -36 0
-13 -48 0
-13 -59 0
-13 -73 0
-25 -36 0
-25 -48 0
-25 -59 0
-25 -73 0
-36 -48 0
-36 -59 0
-36 -73 0
-48 -59 0
-48 -73 0
-59 -73 0
-5 -24 0
-5 -38 0
-5 -46 0
-5 -54 0
-5 -77 0
-24 -38 0
-24 -46 0
-24 -54 0
-24 -77 0
-38 -46 0
-38 -54 0
-38 -77 0
-46 -54 0
-46 -77 0
-54 -77 0
-2 -25 0
-2 -31 0
-2 -48 0
-2 -64 0
-2 -70 0
-25 -31 0
-25 -48 0
-25 -64 0
-25 -70 0
-31 -48 0
-31 -64 0
-31 -70 0
-48 -64 0
-48 -70 0
-64 -70 0
-8 -18 0
-8 -30 0
-8 -49 0
-8 -62 0
-8 -68 0
-18 -30 0
-18 -49 0
-18 -62 0
-18 -68 0
-30 -49 0
-30 -62 0
-30 -68 0
-49 -62 0
-49 -68 0
-62 -68 0
-4 -19 0
-4 -37 0
-4 -52 0
-4 -59 0
-4 -70 0
-19 -37 0
-19 -52 0
-19 -59 0
-19 -70 0
-37 -52 0
-37 -59 0
-37 -70 0
-52 -59 0
-52 -70 0
-59 -70 0
-8 -15 0
-8 -39 0
-8 -51 0
-8 -57 0
-8 -68 0
-15 -39 0
-15 -51 0
-15 -57 0
-15 -68 0
-39 -51 0
-39 -57 0
-39 -68 0
-51 -57 0
-51 -68 0
-57 -68 0
-8 -26 0
-8 -35 0
-8 -44 0
-8 -65 0
-8 -68 0
-26 -35 0
-26 -44 0
-26 -65 0
-26 -68 0
-35 -44 0
-35 -65 0
-35 -68 0
-44 -65 0
-44 -68 0
-65 -68 0
