p cnf 63 30438
1 2 3 4 5 6 7 0
-1 -2 0
-1 -3 0
-1 -4 0
-1 -5 0
-1 -6 0
-1 -7 0
-2 -3 0
-2 -4 0
-2 -5 0
-2 -6 0
-2 -7 0
-3 -4 0
-3 -5 0
-3 -6 0
-3 -7 0
-4 -5 0
-4 -6 0
-4 -7 0
-5 -6 0
-5 -7 0
-6 -7 0
8 9 10 11 12 13 14 0
-8 -9 0
-8 -10 0
-8 -11 0
-8 -12 0
-8 -13 0
-8 -14 0
-9 -10 0
-9 -11 0
-9 -12 0
-9 -13 0
-9 -14 0
-10 -11 0
-10 -12 0
-10 -13 0
-10 -14 0
-11 -12 0
-11 -13 0
-11 -14 0
-12 -13 0
-12 -14 0
-13 -14 0
15 16 17 18 19 20 21 0
-15 -16 0
-15 -17 0
-15 -18 0
-15 -19 0
-15 -20 0
-15 -21 0
-16 -17 0
-16 -18 0
-16 -19 0
-16 -20 0
-16 -21 0
-17 -18 0
-17 -19 0
-17 -20 0
-17 -21 0
-18 -19 0
-18 -20 0
-18 -21 0
-19 -20 0
-19 -21 0
-20 -21 0
22 23 24 25 26 27 28 0
-22 -23 0
-22 -24 0
-22 -25 0
-22 -26 0
-22 -27 0
-22 -28 0
-23 -24 0
-23 -25 0
-23 -26 0
-23 -27 0
-23 -28 0
-24 -25 0
-24 -26 0
-24 -27 0
-24 -28 0
-25 -26 0
-25 -27 0
-25 -28 0
-26 -27 0
-26 -28 0
-27 -28 0
29 30 31 32 33 34 35 0
-29 -30 0
-29 -31 0
-29 -32 0
-29 -33 0
-29 -34 0
-29 -35 0
-30 -31 0
-30 -32 0
-30 -33 0
-30 -34 0
-30 -35 0
-31 -32 0
-31 -33 0
-31 -34 0
-31 -35 0
-32 -33 0
-32 -34 0
-32 -35 0
-33 -34 0
-33 -35 0
-34 -35 0
36 37 38 39 40 41 42 0
-36 -37 0
-36 -38 0
-36 -39 0
-36 -40 0
-36 -41 0
-36 -42 0
-37 -38 0
-37 -39 0
-37 -40 0
-37 -41 0
-37 -42 0
-38 -39 0
-38 -40 0
-38 -41 0
-38 -42 0
-39 -40 0
-39 -41 0
-39 -42 0
-40 -41 0
-40 -42 0
-41 -42 0
43 44 45 46 47 48 49 0
-43 -44 0
-43 -45 0
-43 -46 0
-43 -47 0
-43 -48 0
-43 -49 0
-44 -45 0
-44 -46 0
-44 -47 0
-44 -48 0
-44 -49 0
-45 -46 0
-45 -47 0
-45 -48 0
-45 -49 0
-46 -47 0
-46 -48 0
-46 -49 0
-47 -48 0
-47 -49 0
-48 -49 0
50 51 52 53 54 55 56 0
-50 -51 0
-50 -52 0
-50 -53 0
-50 -54 0
-50 -55 0
-50 -56 0
-51 -52 0
-51 -53 0
-51 -54 0
-51 -55 0
-51 -56 0
-52 -53 0
-52 -54 0
-52 -55 0
-52 -56 0
-53 -54 0
-53 -55 0
-53 -56 0
-54 -55 0
-54 -56 0
-55 -56 0
57 58 59 60 61 62 63 0
-57 -58 0
-57 -59 0
-57 -60 0
-57 -61 0
-57 -62 0
-57 -63 0
-58 -59 0
-58 -60 0
-58 -61 0
-58 -62 0
-58 -63 0
-59 -60 0
-59 -61 0
-59 -62 0
-59 -63 0
-60 -61 0
-60 -62 0
-60 -63 0
-61 -62 0
-61 -63 0
-62 -63 0
-4 -10 -19 -24 0
-4 -10 -19 -32 0
-4 -10 -19 -41 0
-4 -10 -19 -44 0
-4 -10 -19 -50 0
-4 -10 -19 -62 0
-4 -10 -24 -32 0
-4 -10 -24 -41 0
-4 -10 -24 -44 0
-4 -10 -24 -50 0
-4 -10 -24 -62 0
-4 -10 -32 -41 0
-4 -10 -32 -44 0
-4 -10 -32 -50 0
-4 -10 -32 -62 0
-4 -10 -41 -44 0
-4 -10 -41 -50 0
-4 -10 -41 -62 0
-4 -10 -44 -50 0
-4 -10 -44 -62 0
-4 -10 -50 -62 0
-4 -19 -24 -32 0
-4 -19 -24 -41 0
-4 -19 -24 -44 0
-4 -19 -24 -50 0
-4 -19 -24 -62 0
-4 -19 -32 -41 0
-4 -19 -32 -44 0
-4 -19 -32 -50 0
-4 -19 -32 -62 0
-4 -19 -41 -44 0
-4 -19 -41 -50 0
-4 -19 -41 -62 0
-4 -19 -44 -50 0
-4 -19 -44 -62 0
-4 -19 -50 -62 0
-4 -24 -32 -41 0
-4 -24 -32 -44 0
-4 -24 -32 -50 0
-4 -24 -32 -62 0
-4 -24 -41 -44 0
-4 -24 -41 -50 0
-4 -24 -41 -62 0
-4 -24 -44 -50 0
-4 -24 -44 -62 0
-4 -24 -50 -62 0
-4 -32 -41 -44 0
-4 -32 -41 -50 0
-4 -32 -41 -62 0
-4 -32 -44 -50 0
-4 -32 -44 -62 0
-4 -32 -50 -62 0
-4 -41 -44 -50 0
-4 -41 -44 -62 0
-4 -41 -50 -62 0
-4 -44 -50 -62 0
-10 -19 -24 -32 0
-10 -19 -24 -41 0
-10 -19 -24 -44 0
-10 -19 -24 -50 0
-10 -19 -24 -62 0
-10 -19 -32 -41 0
-10 -19 -32 -44 0
-10 -19 -32 -50 0
-10 -19 -32 -62 0
-10 -19 -41 -44 0
-10 -19 -41 -50 0
-10 -19 -41 -62 0
-10 -19 -44 -50 0
-10 -19 -44 -62 0
-10 -19 -50 -62 0
-10 -24 -32 -41 0
-10 -24 -32 -44 0
-10 -24 -32 -50 0
-10 -24 -32 -62 0
-10 -24 -41 -44 0
-10 -24 -41 -50 0
-10 -24 -41 -62 0
-10 -24 -44 -50 0
-10 -24 -44 -62 0
-10 -24 -50 -62 0
-10 -32 -41 -44 0
-10 -32 -41 -50 0
-10 -32 -41 -62 0
-10 -32 -44 -50 0
-10 -32 -44 -62 0
-10 -32 -50 -62 0
-10 -41 -44 -50 0
-10 -41 -44 -62 0
-10 -41 -50 -62 0
-10 -44 -50 -62 0
-19 -24 -32 -41 0
-19 -24 -32 -44 0
-19 -24 -32 -50 0
-19 -24 -32 -62 0
-19 -24 -41 -44 0
-19 -24 -41 -50 0
-19 -24 -41 -62 0
-19 -24 -44 -50 0
-19 -24 -44 -62 0
-19 -24 -50 -62 0
-19 -32 -41 -44 0
-19 -32 -41 -50 0
-19 -32 -41 -62 0
-19 -32 -44 -50 0
-19 -32 -44 -62 0
-19 -32 -50 -62 0
-19 -41 -44 -50 0
-19 -41 -44 -62 0
-19 -41 -50 -62 0
-19 -44 -50 -62 0
-24 -32 -41 -44 0
-24 -32 -41 -50 0
-24 -32 -41 -62 0
-24 -32 -44 -50 0
-24 -32 -44 -62 0
-24 -32 -50 -62 0
-24 -41 -44 -50 0
-24 -41 -44 -62 0
-24 -41 -50 -62 0
-24 -44 -50 -62 0
-32 -41 -44 -50 0
-32 -41 -44 -62 0
-32 -41 -50 -62 0
-32 -44 -50 -62 0
-41 -44 -50 -62 0
-7 -11 -20 -28 0
-7 -11 -20 -35 0
-7 -11 -20 -42 0
-7 -11 -20 -45 0
-7 -11 -20 -56 0
-7 -11 -20 -63 0
-7 -11 -28 -35 0
-7 -11 -28 -42 0
-7 -11 -28 -45 0
-7 -11 -28 -56 0
-7 -11 -28 -63 0
-7 -11 -35 -42 0
-7 -11 -35 -45 0
-7 -11 -35 -56 0
-7 -11 -35 -63 0
-7 -11 -42 -45 0
-7 -11 -42 -56 0
-7 -11 -42 -63 0
-7 -11 -45 -56 0
-7 -11 -45 -63 0
-7 -11 -56 -63 0
-7 -20 -28 -35 0
-7 -20 -28 -42 0
-7 -20 -28 -45 0
-7 -20 -28 -56 0
-7 -20 -28 -63 0
-7 -20 -35 -42 0
-7 -20 -35 -45 0
-7 -20 -35 -56 0
-7 -20 -35 -63 0
-7 -20 -42 -45 0
-7 -20 -42 -56 0
-7 -20 -42 -63 0
-7 -20 -45 -56 0
-7 -20 -45 -63 0
-7 -20 -56 -63 0
-7 -28 -35 -42 0
-7 -28 -35 -45 0
-7 -28 -35 -56 0
-7 -28 -35 -63 0
-7 -28 -42 -45 0
-7 -28 -42 -56 0
-7 -28 -42 -63 0
-7 -28 -45 -56 0
-7 -28 -45 -63 0
-7 -28 -56 -63 0
-7 -35 -42 -45 0
-7 -35 -42 -56 0
-7 -35 -42 -63 0
-7 -35 -45 -56 0
-7 -35 -45 -63 0
-7 -35 -56 -63 0
-7 -42 -45 -56 0
-7 -42 -45 -63 0
-7 -42 -56 -63 0
-7 -45 -56 -63 0
-11 -20 -28 -35 0
-11 -20 -28 -42 0
-11 -20 -28 -45 0
-11 -20 -28 -56 0
-11 -20 -28 -63 0
-11 -20 -35 -42 0
-11 -20 -35 -45 0
-11 -20 -35 -56 0
-11 -20 -35 -63 0
-11 -20 -42 -45 0
-11 -20 -42 -56 0
-11 -20 -42 -63 0
-11 -20 -45 -56 0
-11 -20 -45 -63 0
-11 -20 -56 -63 0
-11 -28 -35 -42 0
-11 -28 -35 -45 0
-11 -28 -35 -56 0
-11 -28 -35 -63 0
-11 -28 -42 -45 0
-11 -28 -42 -56 0
-11 -28 -42 -63 0
-11 -28 -45 -56 0
-11 -28 -45 -63 0
-11 -28 -56 -63 0
-11 -35 -42 -45 0
-11 -35 -42 -56 0
-11 -35 -42 -63 0
-11 -35 -45 -56 0
-11 -35 -45 -63 0
-11 -35 -56 -63 0
-11 -42 -45 -56 0
-11 -42 -45 -63 0
-11 -42 -56 -63 0
-11 -45 -56 -63 0
-20 -28 -35 -42 0
-20 -28 -35 -45 0
-20 -28 -35 -56 0
-20 -28 -35 -63 0
-20 -28 -42 -45 0
-20 -28 -42 -56 0
-20 -28 -42 -63 0
-20 -28 -45 -56 0
-20 -28 -45 -63 0
-20 -28 -56 -63 0
-20 -35 -42 -45 0
-20 -35 -42 -56 0
-20 -35 -42 -63 0
-20 -35 -45 -56 0
-20 -35 -45 -63 0
-20 -35 -56 -63 0
-20 -42 -45 -56 0
-20 -42 -45 -63 0
-20 -42 -56 -63 0
-20 -45 -56 -63 0
-28 -35 -42 -45 0
-28 -35 -42 -56 0
-28 -35 -42 -63 0
-28 -35 -45 -56 0
-28 -35 -45 -63 0
-28 -35 -56 -63 0
-28 -42 -45 -56 0
-28 -42 -45 -63 0
-28 -42 -56 -63 0
-28 -45 -56 -63 0
-35 -42 -45 -56 0
-35 -42 -45 -63 0
-35 -42 -56 -63 0
-35 -45 -56 -63 0
-42 -45 -56 -63 0
-3 -9 -20 -26 0
-3 -9 -20 -35 0
-3 -9 -20 -36 0
-3 -9 -20 -48 0
-3 -9 -20 -52 0
-3 -9 -20 -62 0
-3 -9 -26 -35 0
-3 -9 -26 -36 0
-3 -9 -26 -48 0
-3 -9 -26 -52 0
-3 -9 -26 -62 0
-3 -9 -35 -36 0
-3 -9 -35 -48 0
-3 -9 -35 -52 0
-3 -9 -35 -62 0
-3 -9 -36 -48 0
-3 -9 -36 -52 0
-3 -9 -36 -62 0
-3 -9 -48 -52 0
-3 -9 -48 -62 0
-3 -9 -52 -62 0
-3 -20 -26 -35 0
-3 -20 -26 -36 0
-3 -20 -26 -48 0
-3 -20 -26 -52 0
-3 -20 -26 -62 0
-3 -20 -35 -36 0
-3 -20 -35 -48 0
-3 -20 -35 -52 0
-3 -20 -35 -62 0
-3 -20 -36 -48 0
-3 -20 -36 -52 0
-3 -20 -36 -62 0
-3 -20 -48 -52 0
-3 -20 -48 -62 0
-3 -20 -52 -62 0
-3 -26 -35 -36 0
-3 -26 -35 -48 0
-3 -26 -35 -52 0
-3 -26 -35 -62 0
-3 -26 -36 -48 0
-3 -26 -36 -52 0
-3 -26 -36 -62 0
-3 -26 -48 -52 0
-3 -26 -48 -62 0
-3 -26 -52 -62 0
-3 -35 -36 -48 0
-3 -35 -36 -52 0
-3 -35 -36 -62 0
-3 -35 -48 -52 0
-3 -35 -48 -62 0
-3 -35 -52 -62 0
-3 -36 -48 -52 0
-3 -36 -48 -62 0
-3 -36 -52 -62 0
-3 -48 -52 -62 0
-9 -20 -26 -35 0
-9 -20 -26 -36 0
-9 -20 -26 -48 0
-9 -20 -26 -52 0
-9 -20 -26 -62 0
-9 -20 -35 -36 0
-9 -20 -35 -48 0
-9 -20 -35 -52 0
-9 -20 -35 -62 0
-9 -20 -36 -48 0
-9 -20 -36 -52 0
-9 -20 -36 -62 0
-9 -20 -48 -52 0
-9 -20 -48 -62 0
-9 -20 -52 -62 0
-9 -26 -35 -36 0
-9 -26 -35 -48 0
-9 -26 -35 -52 0
-9 -26 -35 -62 0
-9 -26 -36 -48 0
-9 -26 -36 -52 0
-9 -26 -36 -62 0
-9 -26 -48 -52 0
-9 -26 -48 -62 0
-9 -26 -52 -62 0
-9 -35 -36 -48 0
-9 -35 -36 -52 0
-9 -35 -36 -62 0
-9 -35 -48 -52 0
-9 -35 -48 -62 0
-9 -35 -52 -62 0
-9 -36 -48 -52 0
-9 -36 -48 -62 0
-9 -36 -52 -62 0
-9 -48 -52 -62 0
-20 -26 -35 -36 0
-20 -26 -35 -48 0
-20 -26 -35 -52 0
-20 -26 -35 -62 0
-20 -26 -36 -48 0
-20 -26 -36 -52 0
-20 -26 -36 -62 0
-20 -26 -48 -52 0
-20 -26 -48 -62 0
-20 -26 -52 -62 0
-20 -35 -36 -48 0
-20 -35 -36 -52 0
-20 -35 -36 -62 0
-20 -35 -48 -52 0
-20 -35 -48 -62 0
-20 -35 -52 -62 0
-20 -36 -48 -52 0
-20 -36 -48 -62 0
-20 -36 -52 -62 0
-20 -48 -52 -62 0
-26 -35 -36 -48 0
-26 -35 -36 -52 0
-26 -35 -36 -62 0
-26 -35 -48 -52 0
-26 -35 -48 -62 0
-26 -35 -52 -62 0
-26 -36 -48 -52 0
-26 -36 -48 -62 0
-26 -36 -52 -62 0
-26 -48 -52 -62 0
-35 -36 -48 -52 0
-35 -36 -48 -62 0
-35 -36 -52 -62 0
-35 -48 -52 -62 0
-36 -48 -52 -62 0
-4 -8 -21 -28 0
-4 -8 -21 -29 0
-4 -8 -21 -37 0
-4 -8 -21 -45 0
-4 -8 -21 -52 0
-4 -8 -21 -58 0
-4 -8 -28 -29 0
-4 -8 -28 -37 0
-4 -8 -28 -45 0
-4 -8 -28 -52 0
-4 -8 -28 -58 0
-4 -8 -29 -37 0
-4 -8 -29 -45 0
-4 -8 -29 -52 0
-4 -8 -29 -58 0
-4 -8 -37 -45 0
-4 -8 -37 -52 0
-4 -8 -37 -58 0
-4 -8 -45 -52 0
-4 -8 -45 -58 0
-4 -8 -52 -58 0
-4 -21 -28 -29 0
-4 -21 -28 -37 0
-4 -21 -28 -45 0
-4 -21 -28 -52 0
-4 -21 -28 -58 0
-4 -21 -29 -37 0
-4 -21 -29 -45 0
-4 -21 -29 -52 0
-4 -21 -29 -58 0
-4 -21 -37 -45 0
-4 -21 -37 -52 0
-4 -21 -37 -58 0
-4 -21 -45 -52 0
-4 -21 -45 -58 0
-4 -21 -52 -58 0
-4 -28 -29 -37 0
-4 -28 -29 -45 0
-4 -28 -29 -52 0
-4 -28 -29 -58 0
-4 -28 -37 -45 0
-4 -28 -37 -52 0
-4 -28 -37 -58 0
-4 -28 -45 -52 0
-4 -28 -45 -58 0
-4 -28 -52 -58 0
-4 -29 -37 -45 0
-4 -29 -37 -52 0
-4 -29 -37 -58 0
-4 -29 -45 -52 0
-4 -29 -45 -58 0
-4 -29 -52 -58 0
-4 -37 -45 -52 0
-4 -37 -45 -58 0
-4 -37 -52 -58 0
-4 -45 -52 -58 0
-8 -21 -28 -29 0
-8 -21 -28 -37 0
-8 -21 -28 -45 0
-8 -21 -28 -52 0
-8 -21 -28 -58 0
-8 -21 -29 -37 0
-8 -21 -29 -45 0
-8 -21 -29 -52 0
-8 -21 -29 -58 0
-8 -21 -37 -45 0
-8 -21 -37 -52 0
-8 -21 -37 -58 0
-8 -21 -45 -52 0
-8 -21 -45 -58 0
-8 -21 -52 -58 0
-8 -28 -29 -37 0
-8 -28 -29 -45 0
-8 -28 -29 -52 0
-8 -28 -29 -58 0
-8 -28 -37 -45 0
-8 -28 -37 -52 0
-8 -28 -37 -58 0
-8 -28 -45 -52 0
-8 -28 -45 -58 0
-8 -28 -52 -58 0
-8 -29 -37 -45 0
-8 -29 -37 -52 0
-8 -29 -37 -58 0
-8 -29 -45 -52 0
-8 -29 -45 -58 0
-8 -29 -52 -58 0
-8 -37 -45 -52 0
-8 -37 -45 -58 0
-8 -37 -52 -58 0
-8 -45 -52 -58 0
-21 -28 -29 -37 0
-21 -28 -29 -45 0
-21 -28 -29 -52 0
-21 -28 -29 -58 0
-21 -28 -37 -45 0
-21 -28 -37 -52 0
-21 -28 -37 -58 0
-21 -28 -45 -52 0
-21 -28 -45 -58 0
-21 -28 -52 -58 0
-21 -29 -37 -45 0
-21 -29 -37 -52 0
-21 -29 -37 -58 0
-21 -29 -45 -52 0
-21 -29 -45 -58 0
-21 -29 -52 -58 0
-21 -37 -45 -52 0
-21 -37 -45 -58 0
-21 -37 -52 -58 0
-21 -45 -52 -58 0
-28 -29 -37 -45 0
-28 -29 -37 -52 0
-28 -29 -37 -58 0
-28 -29 -45 -52 0
-28 -29 -45 -58 0
-28 -29 -52 -58 0
-28 -37 -45 -52 0
-28 -37 -45 -58 0
-28 -37 -52 -58 0
-28 -45 -52 -58 0
-29 -37 -45 -52 0
-29 -37 -45 -58 0
-29 -37 -52 -58 0
-29 -45 -52 -58 0
-37 -45 -52 -58 0
-6 -13 -16 -24 0
-6 -13 -16 -34 0
-6 -13 -16 -41 0
-6 -13 -16 -44 0
-6 -13 -16 -55 0
-6 -13 -16 -60 0
-6 -13 -24 -34 0
-6 -13 -24 -41 0
-6 -13 -24 -44 0
-6 -13 -24 -55 0
-6 -13 -24 -60 0
-6 -13 -34 -41 0
-6 -13 -34 -44 0
-6 -13 -34 -55 0
-6 -13 -34 -60 0
-6 -13 -41 -44 0
-6 -13 -41 -55 0
-6 -13 -41 -60 0
-6 -13 -44 -55 0
-6 -13 -44 -60 0
-6 -13 -55 -60 0
-6 -16 -24 -34 0
-6 -16 -24 -41 0
-6 -16 -24 -44 0
-6 -16 -24 -55 0
-6 -16 -24 -60 0
-6 -16 -34 -41 0
-6 -16 -34 -44 0
-6 -16 -34 -55 0
-6 -16 -34 -60 0
-6 -16 -41 -44 0
-6 -16 -41 -55 0
-6 -16 -41 -60 0
-6 -16 -44 -55 0
-6 -16 -44 -60 0
-6 -16 -55 -60 0
-6 -24 -34 -41 0
-6 -24 -34 -44 0
-6 -24 -34 -55 0
-6 -24 -34 -60 0
-6 -24 -41 -44 0
-6 -24 -41 -55 0
-6 -24 -41 -60 0
-6 -24 -44 -55 0
-6 -24 -44 -60 0
-6 -24 -55 -60 0
-6 -34 -41 -44 0
-6 -34 -41 -55 0
-6 -34 -41 -60 0
-6 -34 -44 -55 0
-6 -34 -44 -60 0
-6 -34 -55 -60 0
-6 -41 -44 -55 0
-6 -41 -44 -60 0
-6 -41 -55 -60 0
-6 -44 -55 -60 0
-13 -16 -24 -34 0
-13 -16 -24 -41 0
-13 -16 -24 -44 0
-13 -16 -24 -55 0
-13 -16 -24 -60 0
-13 -16 -34 -41 0
-13 -16 -34 -44 0
-13 -16 -34 -55 0
-13 -16 -34 -60 0
-13 -16 -41 -44 0
-13 -16 -41 -55 0
-13 -16 -41 -60 0
-13 -16 -44 -55 0
-13 -16 -44 -60 0
-13 -16 -55 -60 0
-13 -24 -34 -41 0
-13 -24 -34 -44 0
-13 -24 -34 -55 0
-13 -24 -34 -60 0
-13 -24 -41 -44 0
-13 -24 -41 -55 0
-13 -24 -41 -60 0
-13 -24 -44 -55 0
-13 -24 -44 -60 0
-13 -24 -55 -60 0
-13 -34 -41 -44 0
-13 -34 -41 -55 0
-13 -34 -41 -60 0
-13 -34 -44 -55 0
-13 -34 -44 -60 0
-13 -34 -55 -60 0
-13 -41 -44 -55 0
-13 -41 -44 -60 0
-13 -41 -55 -60 0
-13 -44 -55 -60 0
-16 -24 -34 -41 0
-16 -24 -34 -44 0
-16 -24 -34 -55 0
-16 -24 -34 -60 0
-16 -24 -41 -44 0
-16 -24 -41 -55 0
-16 -24 -41 -60 0
-16 -24 -44 -55 0
-16 -24 -44 -60 0
-16 -24 -55 -60 0
-16 -34 -41 -44 0
-16 -34 -41 -55 0
-16 -34 -41 -60 0
-16 -34 -44 -55 0
-16 -34 -44 -60 0
-16 -34 -55 -60 0
-16 -41 -44 -55 0
-16 -41 -44 -60 0
-16 -41 -55 -60 0
-16 -44 -55 -60 0
-24 -34 -41 -44 0
-24 -34 -41 -55 0
-24 -34 -41 -60 0
-24 -34 -44 -55 0
-24 -34 -44 -60 0
-24 -34 -55 -60 0
-24 -41 -44 -55 0
-24 -41 -44 -60 0
-24 -41 -55 -60 0
-24 -44 -55 -60 0
-34 -41 -44 -55 0
-34 -41 -44 -60 0
-34 -41 -55 -60 0
-34 -44 -55 -60 0
-41 -44 -55 -60 0
-7 -9 -17 -23 0
-7 -9 -17 -30 0
-7 -9 -17 -40 0
-7 -9 -17 -43 0
-7 -9 -17 -54 0
-7 -9 -17 -59 0
-7 -9 -23 -30 0
-7 -9 -23 -40 0
-7 -9 -23 -43 0
-7 -9 -23 -54 0
-7 -9 -23 -59 0
-7 -9 -30 -40 0
-7 -9 -30 -43 0
-7 -9 -30 -54 0
-7 -9 -30 -59 0
-7 -9 -40 -43 0
-7 -9 -40 -54 0
-7 -9 -40 -59 0
-7 -9 -43 -54 0
-7 -9 -43 -59 0
-7 -9 -54 -59 0
-7 -17 -23 -30 0
-7 -17 -23 -40 0
-7 -17 -23 -43 0
-7 -17 -23 -54 0
-7 -17 -23 -59 0
-7 -17 -30 -40 0
-7 -17 -30 -43 0
-7 -17 -30 -54 0
-7 -17 -30 -59 0
-7 -17 -40 -43 0
-7 -17 -40 -54 0
-7 -17 -40 -59 0
-7 -17 -43 -54 0
-7 -17 -43 -59 0
-7 -17 -54 -59 0
-7 -23 -30 -40 0
-7 -23 -30 -43 0
-7 -23 -30 -54 0
-7 -23 -30 -59 0
-7 -23 -40 -43 0
-7 -23 -40 -54 0
-7 -23 -40 -59 0
-7 -23 -43 -54 0
-7 -23 -43 -59 0
-7 -23 -54 -59 0
-7 -30 -40 -43 0
-7 -30 -40 -54 0
-7 -30 -40 -59 0
-7 -30 -43 -54 0
-7 -30 -43 -59 0
-7 -30 -54 -59 0
-7 -40 -43 -54 0
-7 -40 -43 -59 0
-7 -40 -54 -59 0
-7 -43 -54 -59 0
-9 -17 -23 -30 0
-9 -17 -23 -40 0
-9 -17 -23 -43 0
-9 -17 -23 -54 0
-9 -17 -23 -59 0
-9 -17 -30 -40 0
-9 -17 -30 -43 0
-9 -17 -30 -54 0
-9 -17 -30 -59 0
-9 -17 -40 -43 0
-9 -17 -40 -54 0
-9 -17 -40 -59 0
-9 -17 -43 -54 0
-9 -17 -43 -59 0
-9 -17 -54 -59 0
-9 -23 -30 -40 0
-9 -23 -30 -43 0
-9 -23 -30 -54 0
-9 -23 -30 -59 0
-9 -23 -40 -43 0
-9 -23 -40 -54 0
-9 -23 -40 -59 0
-9 -23 -43 -54 0
-9 -23 -43 -59 0
-9 -23 -54 -59 0
-9 -30 -40 -43 0
-9 -30 -40 -54 0
-9 -30 -40 -59 0
-9 -30 -43 -54 0
-9 -30 -43 -59 0
-9 -30 -54 -59 0
-9 -40 -43 -54 0
-9 -40 -43 -59 0
-9 -40 -54 -59 0
-9 -43 -54 -59 0
-17 -23 -30 -40 0
-17 -23 -30 -43 0
-17 -23 -30 -54 0
-17 -23 -30 -59 0
-17 -23 -40 -43 0
-17 -23 -40 -54 0
-17 -23 -40 -59 0
-17 -23 -43 -54 0
-17 -23 -43 -59 0
-17 -23 -54 -59 0
-17 -30 -40 -43 0
-17 -30 -40 -54 0
-17 -30 -40 -59 0
-17 -30 -43 -54 0
-17 -30 -43 -59 0
-17 -30 -54 -59 0
-17 -40 -43 -54 0
-17 -40 -43 -59 0
-17 -40 -54 -59 0
-17 -43 -54 -59 0
-23 -30 -40 -43 0
-23 -30 -40 -54 0
-23 -30 -40 -59 0
-23 -30 -43 -54 0
-23 -30 -43 -59 0
-23 -30 -54 -59 0
-23 -40 -43 -54 0
-23 -40 -43 -59 0
-23 -40 -54 -59 0
-23 -43 -54 -59 0
-30 -40 -43 -54 0
-30 -40 -43 -59 0
-30 -40 -54 -59 0
-30 -43 -54 -59 0
-40 -43 -54 -59 0
-7 -8 -21 -26 0
-7 -8 -21 -34 0
-7 -8 -21 -37 0
-7 -8 -21 -47 0
-7 -8 -21 -50 0
-7 -8 -21 -59 0
-7 -8 -26 -34 0
-7 -8 -26 -37 0
-7 -8 -26 -47 0
-7 -8 -26 -50 0
-7 -8 -26 -59 0
-7 -8 -34 -37 0
-7 -8 -34 -47 0
-7 -8 -34 -50 0
-7 -8 -34 -59 0
-7 -8 -37 -47 0
-7 -8 -37 -50 0
-7 -8 -37 -59 0
-7 -8 -47 -50 0
-7 -8 -47 -59 0
-7 -8 -50 -59 0
-7 -21 -26 -34 0
-7 -21 -26 -37 0
-7 -21 -26 -47 0
-7 -21 -26 -50 0
-7 -21 -26 -59 0
-7 -21 -34 -37 0
-7 -21 -34 -47 0
-7 -21 -34 -50 0
-7 -21 -34 -59 0
-7 -21 -37 -47 0
-7 -21 -37 -50 0
-7 -21 -37 -59 0
-7 -21 -47 -50 0
-7 -21 -47 -59 0
-7 -21 -50 -59 0
-7 -26 -34 -37 0
-7 -26 -34 -47 0
-7 -26 -34 -50 0
-7 -26 -34 -59 0
-7 -26 -37 -47 0
-7 -26 -37 -50 0
-7 -26 -37 -59 0
-7 -26 -47 -50 0
-7 -26 -47 -59 0
-7 -26 -50 -59 0
-7 -34 -37 -47 0
-7 -34 -37 -50 0
-7 -34 -37 -59 0
-7 -34 -47 -50 0
-7 -34 -47 -59 0
-7 -34 -50 -59 0
-7 -37 -47 -50 0
-7 -37 -47 -59 0
-7 -37 -50 -59 0
-7 -47 -50 -59 0
-8 -21 -26 -34 0
-8 -21 -26 -37 0
-8 -21 -26 -47 0
-8 -21 -26 -50 0
-8 -21 -26 -59 0
-8 -21 -34 -37 0
-8 -21 -34 -47 0
-8 -21 -34 -50 0
-8 -21 -34 -59 0
-8 -21 -37 -47 0
-8 -21 -37 -50 0
-8 -21 -37 -59 0
-8 -21 -47 -50 0
-8 -21 -47 -59 0
-8 -21 -50 -59 0
-8 -26 -34 -37 0
-8 -26 -34 -47 0
-8 -26 -34 -50 0
-8 -26 -34 -59 0
-8 -26 -37 -47 0
-8 -26 -37 -50 0
-8 -26 -37 -59 0
-8 -26 -47 -50 0
-8 -26 -47 -59 0
-8 -26 -50 -59 0
-8 -34 -37 -47 0
-8 -34 -37 -50 0
-8 -34 -37 -59 0
-8 -34 -47 -50 0
-8 -34 -47 -59 0
-8 -34 -50 -59 0
-8 -37 -47 -50 0
-8 -37 -47 -59 0
-8 -37 -50 -59 0
-8 -47 -50 -59 0
-21 -26 -34 -37 0
-21 -26 -34 -47 0
-21 -26 -34 -50 0
-21 -26 -34 -59 0
-21 -26 -37 -47 0
-21 -26 -37 -50 0
-21 -26 -37 -59 0
-21 -26 -47 -50 0
-21 -26 -47 -59 0
-21 -26 -50 -59 0
-21 -34 -37 -47 0
-21 -34 -37 -50 0
-21 -34 -37 -59 0
-21 -34 -47 -50 0
-21 -34 -47 -59 0
-21 -34 -50 -59 0
-21 -37 -47 -50 0
-21 -37 -47 -59 0
-21 -37 -50 -59 0
-21 -47 -50 -59 0
-26 -34 -37 -47 0
-26 -34 -37 -50 0
-26 -34 -37 -59 0
-26 -34 -47 -50 0
-26 -34 -47 -59 0
-26 -34 -50 -59 0
-26 -37 -47 -50 0
-26 -37 -47 -59 0
-26 -37 -50 -59 0
-26 -47 -50 -59 0
-34 -37 -47 -50 0
-34 -37 -47 -59 0
-34 -37 -50 -59 0
-34 -47 -50 -59 0
-37 -47 -50 -59 0
-6 -14 -21 -28 0
-6 -14 -21 -32 0
-6 -14 -21 -39 0
-6 -14 -21 -45 0
-6 -14 -21 -54 0
-6 -14 -21 -62 0
-6 -14 -28 -32 0
-6 -14 -28 -39 0
-6 -14 -28 -45 0
-6 -14 -28 -54 0
-6 -14 -28 -62 0
-6 -14 -32 -39 0
-6 -14 -32 -45 0
-6 -14 -32 -54 0
-6 -14 -32 -62 0
-6 -14 -39 -45 0
-6 -14 -39 -54 0
-6 -14 -39 -62 0
-6 -14 -45 -54 0
-6 -14 -45 -62 0
-6 -14 -54 -62 0
-6 -21 -28 -32 0
-6 -21 -28 -39 0
-6 -21 -28 -45 0
-6 -21 -28 -54 0
-6 -21 -28 -62 0
-6 -21 -32 -39 0
-6 -21 -32 -45 0
-6 -21 -32 -54 0
-6 -21 -32 -62 0
-6 -21 -39 -45 0
-6 -21 -39 -54 0
-6 -21 -39 -62 0
-6 -21 -45 -54 0
-6 -21 -45 -62 0
-6 -21 -54 -62 0
-6 -28 -32 -39 0
-6 -28 -32 -45 0
-6 -28 -32 -54 0
-6 -28 -32 -62 0
-6 -28 -39 -45 0
-6 -28 -39 -54 0
-6 -28 -39 -62 0
-6 -28 -45 -54 0
-6 -28 -45 -62 0
-6 -28 -54 -62 0
-6 -32 -39 -45 0
-6 -32 -39 -54 0
-6 -32 -39 -62 0
-6 -32 -45 -54 0
-6 -32 -45 -62 0
-6 -32 -54 -62 0
-6 -39 -45 -54 0
-6 -39 -45 -62 0
-6 -39 -54 -62 0
-6 -45 -54 -62 0
-14 -21 -28 -32 0
-14 -21 -28 -39 0
-14 -21 -28 -45 0
-14 -21 -28 -54 0
-14 -21 -28 -62 0
-14 -21 -32 -39 0
-14 -21 -32 -45 0
-14 -21 -32 -54 0
-14 -21 -32 -62 0
-14 -21 -39 -45 0
-14 -21 -39 -54 0
-14 -21 -39 -62 0
-14 -21 -45 -54 0
-14 -21 -45 -62 0
-14 -21 -54 -62 0
-14 -28 -32 -39 0
-14 -28 -32 -45 0
-14 -28 -32 -54 0
-14 -28 -32 -62 0
-14 -28 -39 -45 0
-14 -28 -39 -54 0
-14 -28 -39 -62 0
-14 -28 -45 -54 0
-14 -28 -45 -62 0
-14 -28 -54 -62 0
-14 -32 -39 -45 0
-14 -32 -39 -54 0
-14 -32 -39 -62 0
-14 -32 -45 -54 0
-14 -32 -45 -62 0
-14 -32 -54 -62 0
-14 -39 -45 -54 0
-14 -39 -45 -62 0
-14 -39 -54 -62 0
-14 -45 -54 -62 0
-21 -28 -32 -39 0
-21 -28 -32 -45 0
-21 -28 -32 -54 0
-21 -28 -32 -62 0
-21 -28 -39 -45 0
-21 -28 -39 -54 0
-21 -28 -39 -62 0
-21 -28 -45 -54 0
-21 -28 -45 -62 0
-21 -28 -54 -62 0
-21 -32 -39 -45 0
-21 -32 -39 -54 0
-21 -32 -39 -62 0
-21 -32 -45 -54 0
-21 -32 -45 -62 0
-21 -32 -54 -62 0
-21 -39 -45 -54 0
-21 -39 -45 -62 0
-21 -39 -54 -62 0
-21 -45 -54 -62 0
-28 -32 -39 -45 0
-28 -32 -39 -54 0
-28 -32 -39 -62 0
-28 -32 -45 -54 0
-28 -32 -45 -62 0
-28 -32 -54 -62 0
-28 -39 -45 -54 0
-28 -39 -45 -62 0
-28 -39 -54 -62 0
-28 -45 -54 -62 0
-32 -39 -45 -54 0
-32 -39 -45 -62 0
-32 -39 -54 -62 0
-32 -45 -54 -62 0
-39 -45 -54 -62 0
-2 -14 -16 -22 0
-2 -14 -16 -32 0
-2 -14 -16 -38 0
-2 -14 -16 -49 0
-2 -14 -16 -50 0
-2 -14 -16 -57 0
-2 -14 -22 -32 0
-2 -14 -22 -38 0
-2 -14 -22 -49 0
-2 -14 -22 -50 0
-2 -14 -22 -57 0
-2 -14 -32 -38 0
-2 -14 -32 -49 0
-2 -14 -32 -50 0
-2 -14 -32 -57 0
-2 -14 -38 -49 0
-2 -14 -38 -50 0
-2 -14 -38 -57 0
-2 -14 -49 -50 0
-2 -14 -49 -57 0
-2 -14 -50 -57 0
-2 -16 -22 -32 0
-2 -16 -22 -38 0
-2 -16 -22 -49 0
-2 -16 -22 -50 0
-2 -16 -22 -57 0
-2 -16 -32 -38 0
-2 -16 -32 -49 0
-2 -16 -32 -50 0
-2 -16 -32 -57 0
-2 -16 -38 -49 0
-2 -16 -38 -50 0
-2 -16 -38 -57 0
-2 -16 -49 -50 0
-2 -16 -49 -57 0
-2 -16 -50 -57 0
-2 -22 -32 -38 0
-2 -22 -32 -49 0
-2 -22 -32 -50 0
-2 -22 -32 -57 0
-2 -22 -38 -49 0
-2 -22 -38 -50 0
-2 -22 -38 -57 0
-2 -22 -49 -50 0
-2 -22 -49 -57 0
-2 -22 -50 -57 0
-2 -32 -38 -49 0
-2 -32 -38 -50 0
-2 -32 -38 -57 0
-2 -32 -49 -50 0
-2 -32 -49 -57 0
-2 -32 -50 -57 0
-2 -38 -49 -50 0
-2 -38 -49 -57 0
-2 -38 -50 -57 0
-2 -49 -50 -57 0
-14 -16 -22 -32 0
-14 -16 -22 -38 0
-14 -16 -22 -49 0
-14 -16 -22 -50 0
-14 -16 -22 -57 0
-14 -16 -32 -38 0
-14 -16 -32 -49 0
-14 -16 -32 -50 0
-14 -16 -32 -57 0
-14 -16 -38 -49 0
-14 -16 -38 -50 0
-14 -16 -38 -57 0
-14 -16 -49 -50 0
-14 -16 -49 -57 0
-14 -16 -50 -57 0
-14 -22 -32 -38 0
-14 -22 -32 -49 0
-14 -22 -32 -50 0
-14 -22 -32 -57 0
-14 -22 -38 -49 0
-14 -22 -38 -50 0
-14 -22 -38 -57 0
-14 -22 -49 -50 0
-14 -22 -49 -57 0
-14 -22 -50 -57 0
-14 -32 -38 -49 0
-14 -32 -38 -50 0
-14 -32 -38 -57 0
-14 -32 -49 -50 0
-14 -32 -49 -57 0
-14 -32 -50 -57 0
-14 -38 -49 -50 0
-14 -38 -49 -57 0
-14 -38 -50 -57 0
-14 -49 -50 -57 0
-16 -22 -32 -38 0
-16 -22 -32 -49 0
-16 -22 -32 -50 0
-16 -22 -32 -57 0
-16 -22 -38 -49 0
-16 -22 -38 -50 0
-16 -22 -38 -57 0
-16 -22 -49 -50 0
-16 -22 -49 -57 0
-16 -22 -50 -57 0
-16 -32 -38 -49 0
-16 -32 -38 -50 0
-16 -32 -38 -57 0
-16 -32 -49 -50 0
-16 -32 -49 -57 0
-16 -32 -50 -57 0
-16 -38 -49 -50 0
-16 -38 -49 -57 0
-16 -38 -50 -57 0
-16 -49 -50 -57 0
-22 -32 -38 -49 0
-22 -32 -38 -50 0
-22 -32 -38 -57 0
-22 -32 -49 -50 0
-22 -32 -49 -57 0
-22 -32 -50 -57 0
-22 -38 -49 -50 0
-22 -38 -49 -57 0
-22 -38 -50 -57 0
-22 -49 -50 -57 0
-32 -38 -49 -50 0
-32 -38 -49 -57 0
-32 -38 -50 -57 0
-32 -49 -50 -57 0
-38 -49 -50 -57 0
-4 -12 -17 -25 0
-4 -12 -17 -32 0
-4 -12 -17 -41 0
-4 -12 -17 -49 0
-4 -12 -17 -50 0
-4 -12 -17 -57 0
-4 -12 -25 -32 0
-4 -12 -25 -41 0
-4 -12 -25 -49 0
-4 -12 -25 -50 0
-4 -12 -25 -57 0
-4 -12 -32 -41 0
-4 -12 -32 -49 0
-4 -12 -32 -50 0
-4 -12 -32 -57 0
-4 -12 -41 -49 0
-4 -12 -41 -50 0
-4 -12 -41 -57 0
-4 -12 -49 -50 0
-4 -12 -49 -57 0
-4 -12 -50 -57 0
-4 -17 -25 -32 0
-4 -17 -25 -41 0
-4 -17 -25 -49 0
-4 -17 -25 -50 0
-4 -17 -25 -57 0
-4 -17 -32 -41 0
-4 -17 -32 -49 0
-4 -17 -32 -50 0
-4 -17 -32 -57 0
-4 -17 -41 -49 0
-4 -17 -41 -50 0
-4 -17 -41 -57 0
-4 -17 -49 -50 0
-4 -17 -49 -57 0
-4 -17 -50 -57 0
-4 -25 -32 -41 0
-4 -25 -32 -49 0
-4 -25 -32 -50 0
-4 -25 -32 -57 0
-4 -25 -41 -49 0
-4 -25 -41 -50 0
-4 -25 -41 -57 0
-4 -25 -49 -50 0
-4 -25 -49 -57 0
-4 -25 -50 -57 0
-4 -32 -41 -49 0
-4 -32 -41 -50 0
-4 -32 -41 -57 0
-4 -32 -49 -50 0
-4 -32 -49 -57 0
-4 -32 -50 -57 0
-4 -41 -49 -50 0
-4 -41 -49 -57 0
-4 -41 -50 -57 0
-4 -49 -50 -57 0
-12 -17 -25 -32 0
-12 -17 -25 -41 0
-12 -17 -25 -49 0
-12 -17 -25 -50 0
-12 -17 -25 -57 0
-12 -17 -32 -41 0
-12 -17 -32 -49 0
-12 -17 -32 -50 0
-12 -17 -32 -57 0
-12 -17 -41 -49 0
-12 -17 -41 -50 0
-12 -17 -41 -57 0
-12 -17 -49 -50 0
-12 -17 -49 -57 0
-12 -17 -50 -57 0
-12 -25 -32 -41 0
-12 -25 -32 -49 0
-12 -25 -32 -50 0
-12 -25 -32 -57 0
-12 -25 -41 -49 0
-12 -25 -41 -50 0
-12 -25 -41 -57 0
-12 -25 -49 -50 0
-12 -25 -49 -57 0
-12 -25 -50 -57 0
-12 -32 -41 -49 0
-12 -32 -41 -50 0
-12 -32 -41 -57 0
-12 -32 -49 -50 0
-12 -32 -49 -57 0
-12 -32 -50 -57 0
-12 -41 -49 -50 0
-12 -41 -49 -57 0
-12 -41 -50 -57 0
-12 -49 -50 -57 0
-17 -25 -32 -41 0
-17 -25 -32 -49 0
-17 -25 -32 -50 0
-17 -25 -32 -57 0
-17 -25 -41 -49 0
-17 -25 -41 -50 0
-17 -25 -41 -57 0
-17 -25 -49 -50 0
-17 -25 -49 -57 0
-17 -25 -50 -57 0
-17 -32 -41 -49 0
-17 -32 -41 -50 0
-17 -32 -41 -57 0
-17 -32 -49 -50 0
-17 -32 -49 -57 0
-17 -32 -50 -57 0
-17 -41 -49 -50 0
-17 -41 -49 -57 0
-17 -41 -50 -57 0
-17 -49 -50 -57 0
-25 -32 -41 -49 0
-25 -32 -41 -50 0
-25 -32 -41 -57 0
-25 -32 -49 -50 0
-25 -32 -49 -57 0
-25 -32 -50 -57 0
-25 -41 -49 -50 0
-25 -41 -49 -57 0
-25 -41 -50 -57 0
-25 -49 -50 -57 0
-32 -41 -49 -50 0
-32 -41 -49 -57 0
-32 -41 -50 -57 0
-32 -49 -50 -57 0
-41 -49 -50 -57 0
-1 -11 -19 -25 0
-1 -11 -19 -31 0
-1 -11 -19 -36 0
-1 -11 -19 -47 0
-1 -11 -19 -54 0
-1 -11 -19 -63 0
-1 -11 -25 -31 0
-1 -11 -25 -36 0
-1 -11 -25 -47 0
-1 -11 -25 -54 0
-1 -11 -25 -63 0
-1 -11 -31 -36 0
-1 -11 -31 -47 0
-1 -11 -31 -54 0
-1 -11 -31 -63 0
-1 -11 -36 -47 0
-1 -11 -36 -54 0
-1 -11 -36 -63 0
-1 -11 -47 -54 0
-1 -11 -47 -63 0
-1 -11 -54 -63 0
-1 -19 -25 -31 0
-1 -19 -25 -36 0
-1 -19 -25 -47 0
-1 -19 -25 -54 0
-1 -19 -25 -63 0
-1 -19 -31 -36 0
-1 -19 -31 -47 0
-1 -19 -31 -54 0
-1 -19 -31 -63 0
-1 -19 -36 -47 0
-1 -19 -36 -54 0
-1 -19 -36 -63 0
-1 -19 -47 -54 0
-1 -19 -47 -63 0
-1 -19 -54 -63 0
-1 -25 -31 -36 0
-1 -25 -31 -47 0
-1 -25 -31 -54 0
-1 -25 -31 -63 0
-1 -25 -36 -47 0
-1 -25 -36 -54 0
-1 -25 -36 -63 0
-1 -25 -47 -54 0
-1 -25 -47 -63 0
-1 -25 -54 -63 0
-1 -31 -36 -47 0
-1 -31 -36 -54 0
-1 -31 -36 -63 0
-1 -31 -47 -54 0
-1 -31 -47 -63 0
-1 -31 -54 -63 0
-1 -36 -47 -54 0
-1 -36 -47 -63 0
-1 -36 -54 -63 0
-1 -47 -54 -63 0
-11 -19 -25 -31 0
-11 -19 -25 -36 0
-11 -19 -25 -47 0
-11 -19 -25 -54 0
-11 -19 -25 -63 0
-11 -19 -31 -36 0
-11 -19 -31 -47 0
-11 -19 -31 -54 0
-11 -19 -31 -63 0
-11 -19 -36 -47 0
-11 -19 -36 -54 0
-11 -19 -36 -63 0
-11 -19 -47 -54 0
-11 -19 -47 -63 0
-11 -19 -54 -63 0
-11 -25 -31 -36 0
-11 -25 -31 -47 0
-11 -25 -31 -54 0
-11 -25 -31 -63 0
-11 -25 -36 -47 0
-11 -25 -36 -54 0
-11 -25 -36 -63 0
-11 -25 -47 -54 0
-11 -25 -47 -63 0
-11 -25 -54 -63 0
-11 -31 -36 -47 0
-11 -31 -36 -54 0
-11 -31 -36 -63 0
-11 -31 -47 -54 0
-11 -31 -47 -63 0
-11 -31 -54 -63 0
-11 -36 -47 -54 0
-11 -36 -47 -63 0
-11 -36 -54 -63 0
-11 -47 -54 -63 0
-19 -25 -31 -36 0
-19 -25 -31 -47 0
-19 -25 -31 -54 0
-19 -25 -31 -63 0
-19 -25 -36 -47 0
-19 -25 -36 -54 0
-19 -25 -36 -63 0
-19 -25 -47 -54 0
-19 -25 -47 -63 0
-19 -25 -54 -63 0
-19 -31 -36 -47 0
-19 -31 -36 -54 0
-19 -31 -36 -63 0
-19 -31 -47 -54 0
-19 -31 -47 -63 0
-19 -31 -54 -63 0
-19 -36 -47 -54 0
-19 -36 -47 -63 0
-19 -36 -54 -63 0
-19 -47 -54 -63 0
-25 -31 -36 -47 0
-25 -31 -36 -54 0
-25 -31 -36 -63 0
-25 -31 -47 -54 0
-25 -31 -47 -63 0
-25 -31 -54 -63 0
-25 -36 -47 -54 0
-25 -36 -47 -63 0
-25 -36 -54 -63 0
-25 -47 -54 -63 0
-31 -36 -47 -54 0
-31 -36 -47 -63 0
-31 -36 -54 -63 0
-31 -47 -54 -63 0
-36 -47 -54 -63 0
-5 -14 -17 -28 0
-5 -14 -17 -32 0
-5 -14 -17 -37 0
-5 -14 -17 -44 0
-5 -14 -17 -55 0
-5 -14 -17 -63 0
-5 -14 -28 -32 0
-5 -14 -28 -37 0
-5 -14 -28 -44 0
-5 -14 -28 -55 0
-5 -14 -28 -63 0
-5 -14 -32 -37 0
-5 -14 -32 -44 0
-5 -14 -32 -55 0
-5 -14 -32 -63 0
-5 -14 -37 -44 0
-5 -14 -37 -55 0
-5 -14 -37 -63 0
-5 -14 -44 -55 0
-5 -14 -44 -63 0
-5 -14 -55 -63 0
-5 -17 -28 -32 0
-5 -17 -28 -37 0
-5 -17 -28 -44 0
-5 -17 -28 -55 0
-5 -17 -28 -63 0
-5 -17 -32 -37 0
-5 -17 -32 -44 0
-5 -17 -32 -55 0
-5 -17 -32 -63 0
-5 -17 -37 -44 0
-5 -17 -37 -55 0
-5 -17 -37 -63 0
-5 -17 -44 -55 0
-5 -17 -44 -63 0
-5 -17 -55 -63 0
-5 -28 -32 -37 0
-5 -28 -32 -44 0
-5 -28 -32 -55 0
-5 -28 -32 -63 0
-5 -28 -37 -44 0
-5 -28 -37 -55 0
-5 -28 -37 -63 0
-5 -28 -44 -55 0
-5 -28 -44 -63 0
-5 -28 -55 -63 0
-5 -32 -37 -44 0
-5 -32 -37 -55 0
-5 -32 -37 -63 0
-5 -32 -44 -55 0
-5 -32 -44 -63 0
-5 -32 -55 -63 0
-5 -37 -44 -55 0
-5 -37 -44 -63 0
-5 -37 -55 -63 0
-5 -44 -55 -63 0
-14 -17 -28 -32 0
-14 -17 -28 -37 0
-14 -17 -28 -44 0
-14 -17 -28 -55 0
-14 -17 -28 -63 0
-14 -17 -32 -37 0
-14 -17 -32 -44 0
-14 -17 -32 -55 0
-14 -17 -32 -63 0
-14 -17 -37 -44 0
-14 -17 -37 -55 0
-14 -17 -37 -63 0
-14 -17 -44 -55 0
-14 -17 -44 -63 0
-14 -17 -55 -63 0
-14 -28 -32 -37 0
-14 -28 -32 -44 0
-14 -28 -32 -55 0
-14 -28 -32 -63 0
-14 -28 -37 -44 0
-14 -28 -37 -55 0
-14 -28 -37 -63 0
-14 -28 -44 -55 0
-14 -28 -44 -63 0
-14 -28 -55 -63 0
-14 -32 -37 -44 0
-14 -32 -37 -55 0
-14 -32 -37 -63 0
-14 -32 -44 -55 0
-14 -32 -44 -63 0
-14 -32 -55 -63 0
-14 -37 -44 -55 0
-14 -37 -44 -63 0
-14 -37 -55 -63 0
-14 -44 -55 -63 0
-17 -28 -32 -37 0
-17 -28 -32 -44 0
-17 -28 -32 -55 0
-17 -28 -32 -63 0
-17 -28 -37 -44 0
-17 -28 -37 -55 0
-17 -28 -37 -63 0
-17 -28 -44 -55 0
-17 -28 -44 -63 0
-17 -28 -55 -63 0
-17 -32 -37 -44 0
-17 -32 -37 -55 0
-17 -32 -37 -63 0
-17 -32 -44 -55 0
-17 -32 -44 -63 0
-17 -32 -55 -63 0
-17 -37 -44 -55 0
-17 -37 -44 -63 0
-17 -37 -55 -63 0
-17 -44 -55 -63 0
-28 -32 -37 -44 0
-28 -32 -37 -55 0
-28 -32 -37 -63 0
-28 -32 -44 -55 0
-28 -32 -44 -63 0
-28 -32 -55 -63 0
-28 -37 -44 -55 0
-28 -37 -44 -63 0
-28 -37 -55 -63 0
-28 -44 -55 -63 0
-32 -37 -44 -55 0
-32 -37 -44 -63 0
-32 -37 -55 -63 0
-32 -44 -55 -63 0
-37 -44 -55 -63 0
-1 -9 -19 -26 0
-1 -9 -19 -34 0
-1 -9 -19 -36 0
-1 -9 -19 -45 0
-1 -9 -19 -51 0
-1 -9 -19 -63 0
-1 -9 -26 -34 0
-1 -9 -26 -36 0
-1 -9 -26 -45 0
-1 -9 -26 -51 0
-1 -9 -26 -63 0
-1 -9 -34 -36 0
-1 -9 -34 -45 0
-1 -9 -34 -51 0
-1 -9 -34 -63 0
-1 -9 -36 -45 0
-1 -9 -36 -51 0
-1 -9 -36 -63 0
-1 -9 -45 -51 0
-1 -9 -45 -63 0
-1 -9 -51 -63 0
-1 -19 -26 -34 0
-1 -19 -26 -36 0
-1 -19 -26 -45 0
-1 -19 -26 -51 0
-1 -19 -26 -63 0
-1 -19 -34 -36 0
-1 -19 -34 -45 0
-1 -19 -34 -51 0
-1 -19 -34 -63 0
-1 -19 -36 -45 0
-1 -19 -36 -51 0
-1 -19 -36 -63 0
-1 -19 -45 -51 0
-1 -19 -45 -63 0
-1 -19 -51 -63 0
-1 -26 -34 -36 0
-1 -26 -34 -45 0
-1 -26 -34 -51 0
-1 -26 -34 -63 0
-1 -26 -36 -45 0
-1 -26 -36 -51 0
-1 -26 -36 -63 0
-1 -26 -45 -51 0
-1 -26 -45 -63 0
-1 -26 -51 -63 0
-1 -34 -36 -45 0
-1 -34 -36 -51 0
-1 -34 -36 -63 0
-1 -34 -45 -51 0
-1 -34 -45 -63 0
-1 -34 -51 -63 0
-1 -36 -45 -51 0
-1 -36 -45 -63 0
-1 -36 -51 -63 0
-1 -45 -51 -63 0
-9 -19 -26 -34 0
-9 -19 -26 -36 0
-9 -19 -26 -45 0
-9 -19 -26 -51 0
-9 -19 -26 -63 0
-9 -19 -34 -36 0
-9 -19 -34 -45 0
-9 -19 -34 -51 0
-9 -19 -34 -63 0
-9 -19 -36 -45 0
-9 -19 -36 -51 0
-9 -19 -36 -63 0
-9 -19 -45 -51 0
-9 -19 -45 -63 0
-9 -19 -51 -63 0
-9 -26 -34 -36 0
-9 -26 -34 -45 0
-9 -26 -34 -51 0
-9 -26 -34 -63 0
-9 -26 -36 -45 0
-9 -26 -36 -51 0
-9 -26 -36 -63 0
-9 -26 -45 -51 0
-9 -26 -45 -63 0
-9 -26 -51 -63 0
-9 -34 -36 -45 0
-9 -34 -36 -51 0
-9 -34 -36 -63 0
-9 -34 -45 -51 0
-9 -34 -45 -63 0
-9 -34 -51 -63 0
-9 -36 -45 -51 0
-9 -36 -45 -63 0
-9 -36 -51 -63 0
-9 -45 -51 -63 0
-19 -26 -34 -36 0
-19 -26 -34 -45 0
-19 -26 -34 -51 0
-19 -26 -34 -63 0
-19 -26 -36 -45 0
-19 -26 -36 -51 0
-19 -26 -36 -63 0
-19 -26 -45 -51 0
-19 -26 -45 -63 0
-19 -26 -51 -63 0
-19 -34 -36 -45 0
-19 -34 -36 -51 0
-19 -34 -36 -63 0
-19 -34 -45 -51 0
-19 -34 -45 -63 0
-19 -34 -51 -63 0
-19 -36 -45 -51 0
-19 -36 -45 -63 0
-19 -36 -51 -63 0
-19 -45 -51 -63 0
-26 -34 -36 -45 0
-26 -34 -36 -51 0
-26 -34 -36 -63 0
-26 -34 -45 -51 0
-26 -34 -45 -63 0
-26 -34 -51 -63 0
-26 -36 -45 -51 0
-26 -36 -45 -63 0
-26 -36 -51 -63 0
-26 -45 -51 -63 0
-34 -36 -45 -51 0
-34 -36 -45 -63 0
-34 -36 -51 -63 0
-34 -45 -51 -63 0
-36 -45 -51 -63 0
-4 -10 -17 -22 0
-4 -10 -17 -34 0
-4 -10 -17 -41 0
-4 -10 -17 -49 0
-4 -10 -17 -55 0
-4 -10 -17 -59 0
-4 -10 -22 -34 0
-4 -10 -22 -41 0
-4 -10 -22 -49 0
-4 -10 -22 -55 0
-4 -10 -22 -59 0
-4 -10 -34 -41 0
-4 -10 -34 -49 0
-4 -10 -34 -55 0
-4 -10 -34 -59 0
-4 -10 -41 -49 0
-4 -10 -41 -55 0
-4 -10 -41 -59 0
-4 -10 -49 -55 0
-4 -10 -49 -59 0
-4 -10 -55 -59 0
-4 -17 -22 -34 0
-4 -17 -22 -41 0
-4 -17 -22 -49 0
-4 -17 -22 -55 0
-4 -17 -22 -59 0
-4 -17 -34 -41 0
-4 -17 -34 -49 0
-4 -17 -34 -55 0
-4 -17 -34 -59 0
-4 -17 -41 -49 0
-4 -17 -41 -55 0
-4 -17 -41 -59 0
-4 -17 -49 -55 0
-4 -17 -49 -59 0
-4 -17 -55 -59 0
-4 -22 -34 -41 0
-4 -22 -34 -49 0
-4 -22 -34 -55 0
-4 -22 -34 -59 0
-4 -22 -41 -49 0
-4 -22 -41 -55 0
-4 -22 -41 -59 0
-4 -22 -49 -55 0
-4 -22 -49 -59 0
-4 -22 -55 -59 0
-4 -34 -41 -49 0
-4 -34 -41 -55 0
-4 -34 -41 -59 0
-4 -34 -49 -55 0
-4 -34 -49 -59 0
-4 -34 -55 -59 0
-4 -41 -49 -55 0
-4 -41 -49 -59 0
-4 -41 -55 -59 0
-4 -49 -55 -59 0
-10 -17 -22 -34 0
-10 -17 -22 -41 0
-10 -17 -22 -49 0
-10 -17 -22 -55 0
-10 -17 -22 -59 0
-10 -17 -34 -41 0
-10 -17 -34 -49 0
-10 -17 -34 -55 0
-10 -17 -34 -59 0
-10 -17 -41 -49 0
-10 -17 -41 -55 0
-10 -17 -41 -59 0
-10 -17 -49 -55 0
-10 -17 -49 -59 0
-10 -17 -55 -59 0
-10 -22 -34 -41 0
-10 -22 -34 -49 0
-10 -22 -34 -55 0
-10 -22 -34 -59 0
-10 -22 -41 -49 0
-10 -22 -41 -55 0
-10 -22 -41 -59 0
-10 -22 -49 -55 0
-10 -22 -49 -59 0
-10 -22 -55 -59 0
-10 -34 -41 -49 0
-10 -34 -41 -55 0
-10 -34 -41 -59 0
-10 -34 -49 -55 0
-10 -34 -49 -59 0
-10 -34 -55 -59 0
-10 -41 -49 -55 0
-10 -41 -49 -59 0
-10 -41 -55 -59 0
-10 -49 -55 -59 0
-17 -22 -34 -41 0
-17 -22 -34 -49 0
-17 -22 -34 -55 0
-17 -22 -34 -59 0
-17 -22 -41 -49 0
-17 -22 -41 -55 0
-17 -22 -41 -59 0
-17 -22 -49 -55 0
-17 -22 -49 -59 0
-17 -22 -55 -59 0
-17 -34 -41 -49 0
-17 -34 -41 -55 0
-17 -34 -41 -59 0
-17 -34 -49 -55 0
-17 -34 -49 -59 0
-17 -34 -55 -59 0
-17 -41 -49 -55 0
-17 -41 -49 -59 0
-17 -41 -55 -59 0
-17 -49 -55 -59 0
-22 -34 -41 -49 0
-22 -34 -41 -55 0
-22 -34 -41 -59 0
-22 -34 -49 -55 0
-22 -34 -49 -59 0
-22 -34 -55 -59 0
-22 -41 -49 -55 0
-22 -41 -49 -59 0
-22 -41 -55 -59 0
-22 -49 -55 -59 0
-34 -41 -49 -55 0
-34 -41 -49 -59 0
-34 -41 -55 -59 0
-34 -49 -55 -59 0
-41 -49 -55 -59 0
-1 -13 -15 -22 0
-1 -13 -15 -29 0
-1 -13 -15 -42 0
-1 -13 -15 -49 0
-1 -13 -15 -53 0
-1 -13 -15 -58 0
-1 -13 -22 -29 0
-1 -13 -22 -42 0
-1 -13 -22 -49 0
-1 -13 -22 -53 0
-1 -13 -22 -58 0
-1 -13 -29 -42 0
-1 -13 -29 -49 0
-1 -13 -29 -53 0
-1 -13 -29 -58 0
-1 -13 -42 -49 0
-1 -13 -42 -53 0
-1 -13 -42 -58 0
-1 -13 -49 -53 0
-1 -13 -49 -58 0
-1 -13 -53 -58 0
-1 -15 -22 -29 0
-1 -15 -22 -42 0
-1 -15 -22 -49 0
-1 -15 -22 -53 0
-1 -15 -22 -58 0
-1 -15 -29 -42 0
-1 -15 -29 -49 0
-1 -15 -29 -53 0
-1 -15 -29 -58 0
-1 -15 -42 -49 0
-1 -15 -42 -53 0
-1 -15 -42 -58 0
-1 -15 -49 -53 0
-1 -15 -49 -58 0
-1 -15 -53 -58 0
-1 -22 -29 -42 0
-1 -22 -29 -49 0
-1 -22 -29 -53 0
-1 -22 -29 -58 0
-1 -22 -42 -49 0
-1 -22 -42 -53 0
-1 -22 -42 -58 0
-1 -22 -49 -53 0
-1 -22 -49 -58 0
-1 -22 -53 -58 0
-1 -29 -42 -49 0
-1 -29 -42 -53 0
-1 -29 -42 -58 0
-1 -29 -49 -53 0
-1 -29 -49 -58 0
-1 -29 -53 -58 0
-1 -42 -49 -53 0
-1 -42 -49 -58 0
-1 -42 -53 -58 0
-1 -49 -53 -58 0
-13 -15 -22 -29 0
-13 -15 -22 -42 0
-13 -15 -22 -49 0
-13 -15 -22 -53 0
-13 -15 -22 -58 0
-13 -15 -29 -42 0
-13 -15 -29 -49 0
-13 -15 -29 -53 0
-13 -15 -29 -58 0
-13 -15 -42 -49 0
-13 -15 -42 -53 0
-13 -15 -42 -58 0
-13 -15 -49 -53 0
-13 -15 -49 -58 0
-13 -15 -53 -58 0
-13 -22 -29 -42 0
-13 -22 -29 -49 0
-13 -22 -29 -53 0
-13 -22 -29 -58 0
-13 -22 -42 -49 0
-13 -22 -42 -53 0
-13 -22 -42 -58 0
-13 -22 -49 -53 0
-13 -22 -49 -58 0
-13 -22 -53 -58 0
-13 -29 -42 -49 0
-13 -29 -42 -53 0
-13 -29 -42 -58 0
-13 -29 -49 -53 0
-13 -29 -49 -58 0
-13 -29 -53 -58 0
-13 -42 -49 -53 0
-13 -42 -49 -58 0
-13 -42 -53 -58 0
-13 -49 -53 -58 0
-15 -22 -29 -42 0
-15 -22 -29 -49 0
-15 -22 -29 -53 0
-15 -22 -29 -58 0
-15 -22 -42 -49 0
-15 -22 -42 -53 0
-15 -22 -42 -58 0
-15 -22 -49 -53 0
-15 -22 -49 -58 0
-15 -22 -53 -58 0
-15 -29 -42 -49 0
-15 -29 -42 -53 0
-15 -29 -42 -58 0
-15 -29 -49 -53 0
-15 -29 -49 -58 0
-15 -29 -53 -58 0
-15 -42 -49 -53 0
-15 -42 -49 -58 0
-15 -42 -53 -58 0
-15 -49 -53 -58 0
-22 -29 -42 -49 0
-22 -29 -42 -53 0
-22 -29 -42 -58 0
-22 -29 -49 -53 0
-22 -29 -49 -58 0
-22 -29 -53 -58 0
-22 -42 -49 -53 0
-22 -42 -49 -58 0
-22 -42 -53 -58 0
-22 -49 -53 -58 0
-29 -42 -49 -53 0
-29 -42 -49 -58 0
-29 -42 -53 -58 0
-29 -49 -53 -58 0
-42 -49 -53 -58 0
-4 -11 -18 -22 0
-4 -11 -18 -33 0
-4 -11 -18 -42 0
-4 -11 -18 -47 0
-4 -11 -18 -53 0
-4 -11 -18 -63 0
-4 -11 -22 -33 0
-4 -11 -22 -42 0
-4 -11 -22 -47 0
-4 -11 -22 -53 0
-4 -11 -22 -63 0
-4 -11 -33 -42 0
-4 -11 -33 -47 0
-4 -11 -33 -53 0
-4 -11 -33 -63 0
-4 -11 -42 -47 0
-4 -11 -42 -53 0
-4 -11 -42 -63 0
-4 -11 -47 -53 0
-4 -11 -47 -63 0
-4 -11 -53 -63 0
-4 -18 -22 -33 0
-4 -18 -22 -42 0
-4 -18 -22 -47 0
-4 -18 -22 -53 0
-4 -18 -22 -63 0
-4 -18 -33 -42 0
-4 -18 -33 -47 0
-4 -18 -33 -53 0
-4 -18 -33 -63 0
-4 -18 -42 -47 0
-4 -18 -42 -53 0
-4 -18 -42 -63 0
-4 -18 -47 -53 0
-4 -18 -47 -63 0
-4 -18 -53 -63 0
-4 -22 -33 -42 0
-4 -22 -33 -47 0
-4 -22 -33 -53 0
-4 -22 -33 -63 0
-4 -22 -42 -47 0
-4 -22 -42 -53 0
-4 -22 -42 -63 0
-4 -22 -47 -53 0
-4 -22 -47 -63 0
-4 -22 -53 -63 0
-4 -33 -42 -47 0
-4 -33 -42 -53 0
-4 -33 -42 -63 0
-4 -33 -47 -53 0
-4 -33 -47 -63 0
-4 -33 -53 -63 0
-4 -42 -47 -53 0
-4 -42 -47 -63 0
-4 -42 -53 -63 0
-4 -47 -53 -63 0
-11 -18 -22 -33 0
-11 -18 -22 -42 0
-11 -18 -22 -47 0
-11 -18 -22 -53 0
-11 -18 -22 -63 0
-11 -18 -33 -42 0
-11 -18 -33 -47 0
-11 -18 -33 -53 0
-11 -18 -33 -63 0
-11 -18 -42 -47 0
-11 -18 -42 -53 0
-11 -18 -42 -63 0
-11 -18 -47 -53 0
-11 -18 -47 -63 0
-11 -18 -53 -63 0
-11 -22 -33 -42 0
-11 -22 -33 -47 0
-11 -22 -33 -53 0
-11 -22 -33 -63 0
-11 -22 -42 -47 0
-11 -22 -42 -53 0
-11 -22 -42 -63 0
-11 -22 -47 -53 0
-11 -22 -47 -63 0
-11 -22 -53 -63 0
-11 -33 -42 -47 0
-11 -33 -42 -53 0
-11 -33 -42 -63 0
-11 -33 -47 -53 0
-11 -33 -47 -63 0
-11 -33 -53 -63 0
-11 -42 -47 -53 0
-11 -42 -47 -63 0
-11 -42 -53 -63 0
-11 -47 -53 -63 0
-18 -22 -33 -42 0
-18 -22 -33 -47 0
-18 -22 -33 -53 0
-18 -22 -33 -63 0
-18 -22 -42 -47 0
-18 -22 -42 -53 0
-18 -22 -42 -63 0
-18 -22 -47 -53 0
-18 -22 -47 -63 0
-18 -22 -53 -63 0
-18 -33 -42 -47 0
-18 -33 -42 -53 0
-18 -33 -42 -63 0
-18 -33 -47 -53 0
-18 -33 -47 -63 0
-18 -33 -53 -63 0
-18 -42 -47 -53 0
-18 -42 -47 -63 0
-18 -42 -53 -63 0
-18 -47 -53 -63 0
-22 -33 -42 -47 0
-22 -33 -42 -53 0
-22 -33 -42 -63 0
-22 -33 -47 -53 0
-22 -33 -47 -63 0
-22 -33 -53 -63 0
-22 -42 -47 -53 0
-22 -42 -47 -63 0
-22 -42 -53 -63 0
-22 -47 -53 -63 0
-33 -42 -47 -53 0
-33 -42 -47 -63 0
-33 -42 -53 -63 0
-33 -47 -53 -63 0
-42 -47 -53 -63 0
-7 -12 -18 -22 0
-7 -12 -18 -29 0
-7 -12 -18 -40 0
-7 -12 -18 -47 0
-7 -12 -18 -51 0
-7 -12 -18 -58 0
-7 -12 -22 -29 0
-7 -12 -22 -40 0
-7 -12 -22 -47 0
-7 -12 -22 -51 0
-7 -12 -22 -58 0
-7 -12 -29 -40 0
-7 -12 -29 -47 0
-7 -12 -29 -51 0
-7 -12 -29 -58 0
-7 -12 -40 -47 0
-7 -12 -40 -51 0
-7 -12 -40 -58 0
-7 -12 -47 -51 0
-7 -12 -47 -58 0
-7 -12 -51 -58 0
-7 -18 -22 -29 0
-7 -18 -22 -40 0
-7 -18 -22 -47 0
-7 -18 -22 -51 0
-7 -18 -22 -58 0
-7 -18 -29 -40 0
-7 -18 -29 -47 0
-7 -18 -29 -51 0
-7 -18 -29 -58 0
-7 -18 -40 -47 0
-7 -18 -40 -51 0
-7 -18 -40 -58 0
-7 -18 -47 -51 0
-7 -18 -47 -58 0
-7 -18 -51 -58 0
-7 -22 -29 -40 0
-7 -22 -29 -47 0
-7 -22 -29 -51 0
-7 -22 -29 -58 0
-7 -22 -40 -47 0
-7 -22 -40 -51 0
-7 -22 -40 -58 0
-7 -22 -47 -51 0
-7 -22 -47 -58 0
-7 -22 -51 -58 0
-7 -29 -40 -47 0
-7 -29 -40 -51 0
-7 -29 -40 -58 0
-7 -29 -47 -51 0
-7 -29 -47 -58 0
-7 -29 -51 -58 0
-7 -40 -47 -51 0
-7 -40 -47 -58 0
-7 -40 -51 -58 0
-7 -47 -51 -58 0
-12 -18 -22 -29 0
-12 -18 -22 -40 0
-12 -18 -22 -47 0
-12 -18 -22 -51 0
-12 -18 -22 -58 0
-12 -18 -29 -40 0
-12 -18 -29 -47 0
-12 -18 -29 -51 0
-12 -18 -29 -58 0
-12 -18 -40 -47 0
-12 -18 -40 -51 0
-12 -18 -40 -58 0
-12 -18 -47 -51 0
-12 -18 -47 -58 0
-12 -18 -51 -58 0
-12 -22 -29 -40 0
-12 -22 -29 -47 0
-12 -22 -29 -51 0
-12 -22 -29 -58 0
-12 -22 -40 -47 0
-12 -22 -40 -51 0
-12 -22 -40 -58 0
-12 -22 -47 -51 0
-12 -22 -47 -58 0
-12 -22 -51 -58 0
-12 -29 -40 -47 0
-12 -29 -40 -51 0
-12 -29 -40 -58 0
-12 -29 -47 -51 0
-12 -29 -47 -58 0
-12 -29 -51 -58 0
-12 -40 -47 -51 0
-12 -40 -47 -58 0
-12 -40 -51 -58 0
-12 -47 -51 -58 0
-18 -22 -29 -40 0
-18 -22 -29 -47 0
-18 -22 -29 -51 0
-18 -22 -29 -58 0
-18 -22 -40 -47 0
-18 -22 -40 -51 0
-18 -22 -40 -58 0
-18 -22 -47 -51 0
-18 -22 -47 -58 0
-18 -22 -51 -58 0
-18 -29 -40 -47 0
-18 -29 -40 -51 0
-18 -29 -40 -58 0
-18 -29 -47 -51 0
-18 -29 -47 -58 0
-18 -29 -51 -58 0
-18 -40 -47 -51 0
-18 -40 -47 -58 0
-18 -40 -51 -58 0
-18 -47 -51 -58 0
-22 -29 -40 -47 0
-22 -29 -40 -51 0
-22 -29 -40 -58 0
-22 -29 -47 -51 0
-22 -29 -47 -58 0
-22 -29 -51 -58 0
-22 -40 -47 -51 0
-22 -40 -47 -58 0
-22 -40 -51 -58 0
-22 -47 -51 -58 0
-29 -40 -47 -51 0
-29 -40 -47 -58 0
-29 -40 -51 -58 0
-29 -47 -51 -58 0
-40 -47 -51 -58 0
-4 -13 -16 -22 0
-4 -13 -16 -30 0
-4 -13 -16 -40 0
-4 -13 -16 -48 0
-4 -13 -16 -50 0
-4 -13 -16 -63 0
-4 -13 -22 -30 0
-4 -13 -22 -40 0
-4 -13 -22 -48 0
-4 -13 -22 -50 0
-4 -13 -22 -63 0
-4 -13 -30 -40 0
-4 -13 -30 -48 0
-4 -13 -30 -50 0
-4 -13 -30 -63 0
-4 -13 -40 -48 0
-4 -13 -40 -50 0
-4 -13 -40 -63 0
-4 -13 -48 -50 0
-4 -13 -48 -63 0
-4 -13 -50 -63 0
-4 -16 -22 -30 0
-4 -16 -22 -40 0
-4 -16 -22 -48 0
-4 -16 -22 -50 0
-4 -16 -22 -63 0
-4 -16 -30 -40 0
-4 -16 -30 -48 0
-4 -16 -30 -50 0
-4 -16 -30 -63 0
-4 -16 -40 -48 0
-4 -16 -40 -50 0
-4 -16 -40 -63 0
-4 -16 -48 -50 0
-4 -16 -48 -63 0
-4 -16 -50 -63 0
-4 -22 -30 -40 0
-4 -22 -30 -48 0
-4 -22 -30 -50 0
-4 -22 -30 -63 0
-4 -22 -40 -48 0
-4 -22 -40 -50 0
-4 -22 -40 -63 0
-4 -22 -48 -50 0
-4 -22 -48 -63 0
-4 -22 -50 -63 0
-4 -30 -40 -48 0
-4 -30 -40 -50 0
-4 -30 -40 -63 0
-4 -30 -48 -50 0
-4 -30 -48 -63 0
-4 -30 -50 -63 0
-4 -40 -48 -50 0
-4 -40 -48 -63 0
-4 -40 -50 -63 0
-4 -48 -50 -63 0
-13 -16 -22 -30 0
-13 -16 -22 -40 0
-13 -16 -22 -48 0
-13 -16 -22 -50 0
-13 -16 -22 -63 0
-13 -16 -30 -40 0
-13 -16 -30 -48 0
-13 -16 -30 -50 0
-13 -16 -30 -63 0
-13 -16 -40 -48 0
-13 -16 -40 -50 0
-13 -16 -40 -63 0
-13 -16 -48 -50 0
-13 -16 -48 -63 0
-13 -16 -50 -63 0
-13 -22 -30 -40 0
-13 -22 -30 -48 0
-13 -22 -30 -50 0
-13 -22 -30 -63 0
-13 -22 -40 -48 0
-13 -22 -40 -50 0
-13 -22 -40 -63 0
-13 -22 -48 -50 0
-13 -22 -48 -63 0
-13 -22 -50 -63 0
-13 -30 -40 -48 0
-13 -30 -40 -50 0
-13 -30 -40 -63 0
-13 -30 -48 -50 0
-13 -30 -48 -63 0
-13 -30 -50 -63 0
-13 -40 -48 -50 0
-13 -40 -48 -63 0
-13 -40 -50 -63 0
-13 -48 -50 -63 0
-16 -22 -30 -40 0
-16 -22 -30 -48 0
-16 -22 -30 -50 0
-16 -22 -30 -63 0
-16 -22 -40 -48 0
-16 -22 -40 -50 0
-16 -22 -40 -63 0
-16 -22 -48 -50 0
-16 -22 -48 -63 0
-16 -22 -50 -63 0
-16 -30 -40 -48 0
-16 -30 -40 -50 0
-16 -30 -40 -63 0
-16 -30 -48 -50 0
-16 -30 -48 -63 0
-16 -30 -50 -63 0
-16 -40 -48 -50 0
-16 -40 -48 -63 0
-16 -40 -50 -63 0
-16 -48 -50 -63 0
-22 -30 -40 -48 0
-22 -30 -40 -50 0
-22 -30 -40 -63 0
-22 -30 -48 -50 0
-22 -30 -48 -63 0
-22 -30 -50 -63 0
-22 -40 -48 -50 0
-22 -40 -48 -63 0
-22 -40 -50 -63 0
-22 -48 -50 -63 0
-30 -40 -48 -50 0
-30 -40 -48 -63 0
-30 -40 -50 -63 0
-30 -48 -50 -63 0
-40 -48 -50 -63 0
-7 -10 -15 -22 0
-7 -10 -15 -35 0
-7 -10 -15 -38 0
-7 -10 -15 -43 0
-7 -10 -15 -53 0
-7 -10 -15 -58 0
-7 -10 -22 -35 0
-7 -10 -22 -38 0
-7 -10 -22 -43 0
-7 -10 -22 -53 0
-7 -10 -22 -58 0
-7 -10 -35 -38 0
-7 -10 -35 -43 0
-7 -10 -35 -53 0
-7 -10 -35 -58 0
-7 -10 -38 -43 0
-7 -10 -38 -53 0
-7 -10 -38 -58 0
-7 -10 -43 -53 0
-7 -10 -43 -58 0
-7 -10 -53 -58 0
-7 -15 -22 -35 0
-7 -15 -22 -38 0
-7 -15 -22 -43 0
-7 -15 -22 -53 0
-7 -15 -22 -58 0
-7 -15 -35 -38 0
-7 -15 -35 -43 0
-7 -15 -35 -53 0
-7 -15 -35 -58 0
-7 -15 -38 -43 0
-7 -15 -38 -53 0
-7 -15 -38 -58 0
-7 -15 -43 -53 0
-7 -15 -43 -58 0
-7 -15 -53 -58 0
-7 -22 -35 -38 0
-7 -22 -35 -43 0
-7 -22 -35 -53 0
-7 -22 -35 -58 0
-7 -22 -38 -43 0
-7 -22 -38 -53 0
-7 -22 -38 -58 0
-7 -22 -43 -53 0
-7 -22 -43 -58 0
-7 -22 -53 -58 0
-7 -35 -38 -43 0
-7 -35 -38 -53 0
-7 -35 -38 -58 0
-7 -35 -43 -53 0
-7 -35 -43 -58 0
-7 -35 -53 -58 0
-7 -38 -43 -53 0
-7 -38 -43 -58 0
-7 -38 -53 -58 0
-7 -43 -53 -58 0
-10 -15 -22 -35 0
-10 -15 -22 -38 0
-10 -15 -22 -43 0
-10 -15 -22 -53 0
-10 -15 -22 -58 0
-10 -15 -35 -38 0
-10 -15 -35 -43 0
-10 -15 -35 -53 0
-10 -15 -35 -58 0
-10 -15 -38 -43 0
-10 -15 -38 -53 0
-10 -15 -38 -58 0
-10 -15 -43 -53 0
-10 -15 -43 -58 0
-10 -15 -53 -58 0
-10 -22 -35 -38 0
-10 -22 -35 -43 0
-10 -22 -35 -53 0
-10 -22 -35 -58 0
-10 -22 -38 -43 0
-10 -22 -38 -53 0
-10 -22 -38 -58 0
-10 -22 -43 -53 0
-10 -22 -43 -58 0
-10 -22 -53 -58 0
-10 -35 -38 -43 0
-10 -35 -38 -53 0
-10 -35 -38 -58 0
-10 -35 -43 -53 0
-10 -35 -43 -58 0
-10 -35 -53 -58 0
-10 -38 -43 -53 0
-10 -38 -43 -58 0
-10 -38 -53 -58 0
-10 -43 -53 -58 0
-15 -22 -35 -38 0
-15 -22 -35 -43 0
-15 -22 -35 -53 0
-15 -22 -35 -58 0
-15 -22 -38 -43 0
-15 -22 -38 -53 0
-15 -22 -38 -58 0
-15 -22 -43 -53 0
-15 -22 -43 -58 0
-15 -22 -53 -58 0
-15 -35 -38 -43 0
-15 -35 -38 -53 0
-15 -35 -38 -58 0
-15 -35 -43 -53 0
-15 -35 -43 -58 0
-15 -35 -53 -58 0
-15 -38 -43 -53 0
-15 -38 -43 -58 0
-15 -38 -53 -58 0
-15 -43 -53 -58 0
-22 -35 -38 -43 0
-22 -35 -38 -53 0
-22 -35 -38 -58 0
-22 -35 -43 -53 0
-22 -35 -43 -58 0
-22 -35 -53 -58 0
-22 -38 -43 -53 0
-22 -38 -43 -58 0
-22 -38 -53 -58 0
-22 -43 -53 -58 0
-35 -38 -43 -53 0
-35 -38 -43 -58 0
-35 -38 -53 -58 0
-35 -43 -53 -58 0
-38 -43 -53 -58 0
-2 -9 -20 -24 0
-2 -9 -20 -34 0
-2 -9 -20 -41 0
-2 -9 -20 -46 0
-2 -9 -20 -53 0
-2 -9 -20 -63 0
-2 -9 -24 -34 0
-2 -9 -24 -41 0
-2 -9 -24 -46 0
-2 -9 -24 -53 0
-2 -9 -24 -63 0
-2 -9 -34 -41 0
-2 -9 -34 -46 0
-2 -9 -34 -53 0
-2 -9 -34 -63 0
-2 -9 -41 -46 0
-2 -9 -41 -53 0
-2 -9 -41 -63 0
-2 -9 -46 -53 0
-2 -9 -46 -63 0
-2 -9 -53 -63 0
-2 -20 -24 -34 0
-2 -20 -24 -41 0
-2 -20 -24 -46 0
-2 -20 -24 -53 0
-2 -20 -24 -63 0
-2 -20 -34 -41 0
-2 -20 -34 -46 0
-2 -20 -34 -53 0
-2 -20 -34 -63 0
-2 -20 -41 -46 0
-2 -20 -41 -53 0
-2 -20 -41 -63 0
-2 -20 -46 -53 0
-2 -20 -46 -63 0
-2 -20 -53 -63 0
-2 -24 -34 -41 0
-2 -24 -34 -46 0
-2 -24 -34 -53 0
-2 -24 -34 -63 0
-2 -24 -41 -46 0
-2 -24 -41 -53 0
-2 -24 -41 -63 0
-2 -24 -46 -53 0
-2 -24 -46 -63 0
-2 -24 -53 -63 0
-2 -34 -41 -46 0
-2 -34 -41 -53 0
-2 -34 -41 -63 0
-2 -34 -46 -53 0
-2 -34 -46 -63 0
-2 -34 -53 -63 0
-2 -41 -46 -53 0
-2 -41 -46 -63 0
-2 -41 -53 -63 0
-2 -46 -53 -63 0
-9 -20 -24 -34 0
-9 -20 -24 -41 0
-9 -20 -24 -46 0
-9 -20 -24 -53 0
-9 -20 -24 -63 0
-9 -20 -34 -41 0
-9 -20 -34 -46 0
-9 -20 -34 -53 0
-9 -20 -34 -63 0
-9 -20 -41 -46 0
-9 -20 -41 -53 0
-9 -20 -41 -63 0
-9 -20 -46 -53 0
-9 -20 -46 -63 0
-9 -20 -53 -63 0
-9 -24 -34 -41 0
-9 -24 -34 -46 0
-9 -24 -34 -53 0
-9 -24 -34 -63 0
-9 -24 -41 -46 0
-9 -24 -41 -53 0
-9 -24 -41 -63 0
-9 -24 -46 -53 0
-9 -24 -46 -63 0
-9 -24 -53 -63 0
-9 -34 -41 -46 0
-9 -34 -41 -53 0
-9 -34 -41 -63 0
-9 -34 -46 -53 0
-9 -34 -46 -63 0
-9 -34 -53 -63 0
-9 -41 -46 -53 0
-9 -41 -46 -63 0
-9 -41 -53 -63 0
-9 -46 -53 -63 0
-20 -24 -34 -41 0
-20 -24 -34 -46 0
-20 -24 -34 -53 0
-20 -24 -34 -63 0
-20 -24 -41 -46 0
-20 -24 -41 -53 0
-20 -24 -41 -63 0
-20 -24 -46 -53 0
-20 -24 -46 -63 0
-20 -24 -53 -63 0
-20 -34 -41 -46 0
-20 -34 -41 -53 0
-20 -34 -41 -63 0
-20 -34 -46 -53 0
-20 -34 -46 -63 0
-20 -34 -53 -63 0
-20 -41 -46 -53 0
-20 -41 -46 -63 0
-20 -41 -53 -63 0
-20 -46 -53 -63 0
-24 -34 -41 -46 0
-24 -34 -41 -53 0
-24 -34 -41 -63 0
-24 -34 -46 -53 0
-24 -34 -46 -63 0
-24 -34 -53 -63 0
-24 -41 -46 -53 0
-24 -41 -46 -63 0
-24 -41 -53 -63 0
-24 -46 -53 -63 0
-34 -41 -46 -53 0
-34 -41 -46 -63 0
-34 -41 -53 -63 0
-34 -46 -53 -63 0
-41 -46 -53 -63 0
-3 -8 -19 -28 0
-3 -8 -19 -29 0
-3 -8 -19 -40 0
-3 -8 -19 -49 0
-3 -8 -19 -54 0
-3 -8 -19 -62 0
-3 -8 -28 -29 0
-3 -8 -28 -40 0
-3 -8 -28 -49 0
-3 -8 -28 -54 0
-3 -8 -28 -62 0
-3 -8 -29 -40 0
-3 -8 -29 -49 0
-3 -8 -29 -54 0
-3 -8 -29 -62 0
-3 -8 -40 -49 0
-3 -8 -40 -54 0
-3 -8 -40 -62 0
-3 -8 -49 -54 0
-3 -8 -49 -62 0
-3 -8 -54 -62 0
-3 -19 -28 -29 0
-3 -19 -28 -40 0
-3 -19 -28 -49 0
-3 -19 -28 -54 0
-3 -19 -28 -62 0
-3 -19 -29 -40 0
-3 -19 -29 -49 0
-3 -19 -29 -54 0
-3 -19 -29 -62 0
-3 -19 -40 -49 0
-3 -19 -40 -54 0
-3 -19 -40 -62 0
-3 -19 -49 -54 0
-3 -19 -49 -62 0
-3 -19 -54 -62 0
-3 -28 -29 -40 0
-3 -28 -29 -49 0
-3 -28 -29 -54 0
-3 -28 -29 -62 0
-3 -28 -40 -49 0
-3 -28 -40 -54 0
-3 -28 -40 -62 0
-3 -28 -49 -54 0
-3 -28 -49 -62 0
-3 -28 -54 -62 0
-3 -29 -40 -49 0
-3 -29 -40 -54 0
-3 -29 -40 -62 0
-3 -29 -49 -54 0
-3 -29 -49 -62 0
-3 -29 -54 -62 0
-3 -40 -49 -54 0
-3 -40 -49 -62 0
-3 -40 -54 -62 0
-3 -49 -54 -62 0
-8 -19 -28 -29 0
-8 -19 -28 -40 0
-8 -19 -28 -49 0
-8 -19 -28 -54 0
-8 -19 -28 -62 0
-8 -19 -29 -40 0
-8 -19 -29 -49 0
-8 -19 -29 -54 0
-8 -19 -29 -62 0
-8 -19 -40 -49 0
-8 -19 -40 -54 0
-8 -19 -40 -62 0
-8 -19 -49 -54 0
-8 -19 -49 -62 0
-8 -19 -54 -62 0
-8 -28 -29 -40 0
-8 -28 -29 -49 0
-8 -28 -29 -54 0
-8 -28 -29 -62 0
-8 -28 -40 -49 0
-8 -28 -40 -54 0
-8 -28 -40 -62 0
-8 -28 -49 -54 0
-8 -28 -49 -62 0
-8 -28 -54 -62 0
-8 -29 -40 -49 0
-8 -29 -40 -54 0
-8 -29 -40 -62 0
-8 -29 -49 -54 0
-8 -29 -49 -62 0
-8 -29 -54 -62 0
-8 -40 -49 -54 0
-8 -40 -49 -62 0
-8 -40 -54 -62 0
-8 -49 -54 -62 0
-19 -28 -29 -40 0
-19 -28 -29 -49 0
-19 -28 -29 -54 0
-19 -28 -29 -62 0
-19 -28 -40 -49 0
-19 -28 -40 -54 0
-19 -28 -40 -62 0
-19 -28 -49 -54 0
-19 -28 -49 -62 0
-19 -28 -54 -62 0
-19 -29 -40 -49 0
-19 -29 -40 -54 0
-19 -29 -40 -62 0
-19 -29 -49 -54 0
-19 -29 -49 -62 0
-19 -29 -54 -62 0
-19 -40 -49 -54 0
-19 -40 -49 -62 0
-19 -40 -54 -62 0
-19 -49 -54 -62 0
-28 -29 -40 -49 0
-28 -29 -40 -54 0
-28 -29 -40 -62 0
-28 -29 -49 -54 0
-28 -29 -49 -62 0
-28 -29 -54 -62 0
-28 -40 -49 -54 0
-28 -40 -49 -62 0
-28 -40 -54 -62 0
-28 -49 -54 -62 0
-29 -40 -49 -54 0
-29 -40 -49 -62 0
-29 -40 -54 -62 0
-29 -49 -54 -62 0
-40 -49 -54 -62 0
-4 -14 -20 -28 0
-4 -14 -20 -29 0
-4 -14 -20 -37 0
-4 -14 -20 -47 0
-4 -14 -20 -55 0
-4 -14 -20 -62 0
-4 -14 -28 -29 0
-4 -14 -28 -37 0
-4 -14 -28 -47 0
-4 -14 -28 -55 0
-4 -14 -28 -62 0
-4 -14 -29 -37 0
-4 -14 -29 -47 0
-4 -14 -29 -55 0
-4 -14 -29 -62 0
-4 -14 -37 -47 0
-4 -14 -37 -55 0
-4 -14 -37 -62 0
-4 -14 -47 -55 0
-4 -14 -47 -62 0
-4 -14 -55 -62 0
-4 -20 -28 -29 0
-4 -20 -28 -37 0
-4 -20 -28 -47 0
-4 -20 -28 -55 0
-4 -20 -28 -62 0
-4 -20 -29 -37 0
-4 -20 -29 -47 0
-4 -20 -29 -55 0
-4 -20 -29 -62 0
-4 -20 -37 -47 0
-4 -20 -37 -55 0
-4 -20 -37 -62 0
-4 -20 -47 -55 0
-4 -20 -47 -62 0
-4 -20 -55 -62 0
-4 -28 -29 -37 0
-4 -28 -29 -47 0
-4 -28 -29 -55 0
-4 -28 -29 -62 0
-4 -28 -37 -47 0
-4 -28 -37 -55 0
-4 -28 -37 -62 0
-4 -28 -47 -55 0
-4 -28 -47 -62 0
-4 -28 -55 -62 0
-4 -29 -37 -47 0
-4 -29 -37 -55 0
-4 -29 -37 -62 0
-4 -29 -47 -55 0
-4 -29 -47 -62 0
-4 -29 -55 -62 0
-4 -37 -47 -55 0
-4 -37 -47 -62 0
-4 -37 -55 -62 0
-4 -47 -55 -62 0
-14 -20 -28 -29 0
-14 -20 -28 -37 0
-14 -20 -28 -47 0
-14 -20 -28 -55 0
-14 -20 -28 -62 0
-14 -20 -29 -37 0
-14 -20 -29 -47 0
-14 -20 -29 -55 0
-14 -20 -29 -62 0
-14 -20 -37 -47 0
-14 -20 -37 -55 0
-14 -20 -37 -62 0
-14 -20 -47 -55 0
-14 -20 -47 -62 0
-14 -20 -55 -62 0
-14 -28 -29 -37 0
-14 -28 -29 -47 0
-14 -28 -29 -55 0
-14 -28 -29 -62 0
-14 -28 -37 -47 0
-14 -28 -37 -55 0
-14 -28 -37 -62 0
-14 -28 -47 -55 0
-14 -28 -47 -62 0
-14 -28 -55 -62 0
-14 -29 -37 -47 0
-14 -29 -37 -55 0
-14 -29 -37 -62 0
-14 -29 -47 -55 0
-14 -29 -47 -62 0
-14 -29 -55 -62 0
-14 -37 -47 -55 0
-14 -37 -47 -62 0
-14 -37 -55 -62 0
-14 -47 -55 -62 0
-20 -28 -29 -37 0
-20 -28 -29 -47 0
-20 -28 -29 -55 0
-20 -28 -29 -62 0
-20 -28 -37 -47 0
-20 -28 -37 -55 0
-20 -28 -37 -62 0
-20 -28 -47 -55 0
-20 -28 -47 -62 0
-20 -28 -55 -62 0
-20 -29 -37 -47 0
-20 -29 -37 -55 0
-20 -29 -37 -62 0
-20 -29 -47 -55 0
-20 -29 -47 -62 0
-20 -29 -55 -62 0
-20 -37 -47 -55 0
-20 -37 -47 -62 0
-20 -37 -55 -62 0
-20 -47 -55 -62 0
-28 -29 -37 -47 0
-28 -29 -37 -55 0
-28 -29 -37 -62 0
-28 -29 -47 -55 0
-28 -29 -47 -62 0
-28 -29 -55 -62 0
-28 -37 -47 -55 0
-28 -37 -47 -62 0
-28 -37 -55 -62 0
-28 -47 -55 -62 0
-29 -37 -47 -55 0
-29 -37 -47 -62 0
-29 -37 -55 -62 0
-29 -47 -55 -62 0
-37 -47 -55 -62 0
-1 -10 -20 -27 0
-1 -10 -20 -29 0
-1 -10 -20 -40 0
-1 -10 -20 -46 0
-1 -10 -20 -50 0
-1 -10 -20 -62 0
-1 -10 -27 -29 0
-1 -10 -27 -40 0
-1 -10 -27 -46 0
-1 -10 -27 -50 0
-1 -10 -27 -62 0
-1 -10 -29 -40 0
-1 -10 -29 -46 0
-1 -10 -29 -50 0
-1 -10 -29 -62 0
-1 -10 -40 -46 0
-1 -10 -40 -50 0
-1 -10 -40 -62 0
-1 -10 -46 -50 0
-1 -10 -46 -62 0
-1 -10 -50 -62 0
-1 -20 -27 -29 0
-1 -20 -27 -40 0
-1 -20 -27 -46 0
-1 -20 -27 -50 0
-1 -20 -27 -62 0
-1 -20 -29 -40 0
-1 -20 -29 -46 0
-1 -20 -29 -50 0
-1 -20 -29 -62 0
-1 -20 -40 -46 0
-1 -20 -40 -50 0
-1 -20 -40 -62 0
-1 -20 -46 -50 0
-1 -20 -46 -62 0
-1 -20 -50 -62 0
-1 -27 -29 -40 0
-1 -27 -29 -46 0
-1 -27 -29 -50 0
-1 -27 -29 -62 0
-1 -27 -40 -46 0
-1 -27 -40 -50 0
-1 -27 -40 -62 0
-1 -27 -46 -50 0
-1 -27 -46 -62 0
-1 -27 -50 -62 0
-1 -29 -40 -46 0
-1 -29 -40 -50 0
-1 -29 -40 -62 0
-1 -29 -46 -50 0
-1 -29 -46 -62 0
-1 -29 -50 -62 0
-1 -40 -46 -50 0
-1 -40 -46 -62 0
-1 -40 -50 -62 0
-1 -46 -50 -62 0
-10 -20 -27 -29 0
-10 -20 -27 -40 0
-10 -20 -27 -46 0
-10 -20 -27 -50 0
-10 -20 -27 -62 0
-10 -20 -29 -40 0
-10 -20 -29 -46 0
-10 -20 -29 -50 0
-10 -20 -29 -62 0
-10 -20 -40 -46 0
-10 -20 -40 -50 0
-10 -20 -40 -62 0
-10 -20 -46 -50 0
-10 -20 -46 -62 0
-10 -20 -50 -62 0
-10 -27 -29 -40 0
-10 -27 -29 -46 0
-10 -27 -29 -50 0
-10 -27 -29 -62 0
-10 -27 -40 -46 0
-10 -27 -40 -50 0
-10 -27 -40 -62 0
-10 -27 -46 -50 0
-10 -27 -46 -62 0
-10 -27 -50 -62 0
-10 -29 -40 -46 0
-10 -29 -40 -50 0
-10 -29 -40 -62 0
-10 -29 -46 -50 0
-10 -29 -46 -62 0
-10 -29 -50 -62 0
-10 -40 -46 -50 0
-10 -40 -46 -62 0
-10 -40 -50 -62 0
-10 -46 -50 -62 0
-20 -27 -29 -40 0
-20 -27 -29 -46 0
-20 -27 -29 -50 0
-20 -27 -29 -62 0
-20 -27 -40 -46 0
-20 -27 -40 -50 0
-20 -27 -40 -62 0
-20 -27 -46 -50 0
-20 -27 -46 -62 0
-20 -27 -50 -62 0
-20 -29 -40 -46 0
-20 -29 -40 -50 0
-20 -29 -40 -62 0
-20 -29 -46 -50 0
-20 -29 -46 -62 0
-20 -29 -50 -62 0
-20 -40 -46 -50 0
-20 -40 -46 -62 0
-20 -40 -50 -62 0
-20 -46 -50 -62 0
-27 -29 -40 -46 0
-27 -29 -40 -50 0
-27 -29 -40 -62 0
-27 -29 -46 -50 0
-27 -29 -46 -62 0
-27 -29 -50 -62 0
-27 -40 -46 -50 0
-27 -40 -46 -62 0
-27 -40 -50 -62 0
-27 -46 -50 -62 0
-29 -40 -46 -50 0
-29 -40 -46 -62 0
-29 -40 -50 -62 0
-29 -46 -50 -62 0
-40 -46 -50 -62 0
-2 -11 -21 -25 0
-2 -11 -21 -30 0
-2 -11 -21 -37 0
-2 -11 -21 -48 0
-2 -11 -21 -53 0
-2 -11 -21 -59 0
-2 -11 -25 -30 0
-2 -11 -25 -37 0
-2 -11 -25 -48 0
-2 -11 -25 -53 0
-2 -11 -25 -59 0
-2 -11 -30 -37 0
-2 -11 -30 -48 0
-2 -11 -30 -53 0
-2 -11 -30 -59 0
-2 -11 -37 -48 0
-2 -11 -37 -53 0
-2 -11 -37 -59 0
-2 -11 -48 -53 0
-2 -11 -48 -59 0
-2 -11 -53 -59 0
-2 -21 -25 -30 0
-2 -21 -25 -37 0
-2 -21 -25 -48 0
-2 -21 -25 -53 0
-2 -21 -25 -59 0
-2 -21 -30 -37 0
-2 -21 -30 -48 0
-2 -21 -30 -53 0
-2 -21 -30 -59 0
-2 -21 -37 -48 0
-2 -21 -37 -53 0
-2 -21 -37 -59 0
-2 -21 -48 -53 0
-2 -21 -48 -59 0
-2 -21 -53 -59 0
-2 -25 -30 -37 0
-2 -25 -30 -48 0
-2 -25 -30 -53 0
-2 -25 -30 -59 0
-2 -25 -37 -48 0
-2 -25 -37 -53 0
-2 -25 -37 -59 0
-2 -25 -48 -53 0
-2 -25 -48 -59 0
-2 -25 -53 -59 0
-2 -30 -37 -48 0
-2 -30 -37 -53 0
-2 -30 -37 -59 0
-2 -30 -48 -53 0
-2 -30 -48 -59 0
-2 -30 -53 -59 0
-2 -37 -48 -53 0
-2 -37 -48 -59 0
-2 -37 -53 -59 0
-2 -48 -53 -59 0
-11 -21 -25 -30 0
-11 -21 -25 -37 0
-11 -21 -25 -48 0
-11 -21 -25 -53 0
-11 -21 -25 -59 0
-11 -21 -30 -37 0
-11 -21 -30 -48 0
-11 -21 -30 -53 0
-11 -21 -30 -59 0
-11 -21 -37 -48 0
-11 -21 -37 -53 0
-11 -21 -37 -59 0
-11 -21 -48 -53 0
-11 -21 -48 -59 0
-11 -21 -53 -59 0
-11 -25 -30 -37 0
-11 -25 -30 -48 0
-11 -25 -30 -53 0
-11 -25 -30 -59 0
-11 -25 -37 -48 0
-11 -25 -37 -53 0
-11 -25 -37 -59 0
-11 -25 -48 -53 0
-11 -25 -48 -59 0
-11 -25 -53 -59 0
-11 -30 -37 -48 0
-11 -30 -37 -53 0
-11 -30 -37 -59 0
-11 -30 -48 -53 0
-11 -30 -48 -59 0
-11 -30 -53 -59 0
-11 -37 -48 -53 0
-11 -37 -48 -59 0
-11 -37 -53 -59 0
-11 -48 -53 -59 0
-21 -25 -30 -37 0
-21 -25 -30 -48 0
-21 -25 -30 -53 0
-21 -25 -30 -59 0
-21 -25 -37 -48 0
-21 -25 -37 -53 0
-21 -25 -37 -59 0
-21 -25 -48 -53 0
-21 -25 -48 -59 0
-21 -25 -53 -59 0
-21 -30 -37 -48 0
-21 -30 -37 -53 0
-21 -30 -37 -59 0
-21 -30 -48 -53 0
-21 -30 -48 -59 0
-21 -30 -53 -59 0
-21 -37 -48 -53 0
-21 -37 -48 -59 0
-21 -37 -53 -59 0
-21 -48 -53 -59 0
-25 -30 -37 -48 0
-25 -30 -37 -53 0
-25 -30 -37 -59 0
-25 -30 -48 -53 0
-25 -30 -48 -59 0
-25 -30 -53 -59 0
-25 -37 -48 -53 0
-25 -37 -48 -59 0
-25 -37 -53 -59 0
-25 -48 -53 -59 0
-30 -37 -48 -53 0
-30 -37 -48 -59 0
-30 -37 -53 -59 0
-30 -48 -53 -59 0
-37 -48 -53 -59 0
-3 -12 -20 -27 0
-3 -12 -20 -31 0
-3 -12 -20 -39 0
-3 -12 -20 -49 0
-3 -12 -20 -53 0
-3 -12 -20 -59 0
-3 -12 -27 -31 0
-3 -12 -27 -39 0
-3 -12 -27 -49 0
-3 -12 -27 -53 0
-3 -12 -27 -59 0
-3 -12 -31 -39 0
-3 -12 -31 -49 0
-3 -12 -31 -53 0
-3 -12 -31 -59 0
-3 -12 -39 -49 0
-3 -12 -39 -53 0
-3 -12 -39 -59 0
-3 -12 -49 -53 0
-3 -12 -49 -59 0
-3 -12 -53 -59 0
-3 -20 -27 -31 0
-3 -20 -27 -39 0
-3 -20 -27 -49 0
-3 -20 -27 -53 0
-3 -20 -27 -59 0
-3 -20 -31 -39 0
-3 -20 -31 -49 0
-3 -20 -31 -53 0
-3 -20 -31 -59 0
-3 -20 -39 -49 0
-3 -20 -39 -53 0
-3 -20 -39 -59 0
-3 -20 -49 -53 0
-3 -20 -49 -59 0
-3 -20 -53 -59 0
-3 -27 -31 -39 0
-3 -27 -31 -49 0
-3 -27 -31 -53 0
-3 -27 -31 -59 0
-3 -27 -39 -49 0
-3 -27 -39 -53 0
-3 -27 -39 -59 0
-3 -27 -49 -53 0
-3 -27 -49 -59 0
-3 -27 -53 -59 0
-3 -31 -39 -49 0
-3 -31 -39 -53 0
-3 -31 -39 -59 0
-3 -31 -49 -53 0
-3 -31 -49 -59 0
-3 -31 -53 -59 0
-3 -39 -49 -53 0
-3 -39 -49 -59 0
-3 -39 -53 -59 0
-3 -49 -53 -59 0
-12 -20 -27 -31 0
-12 -20 -27 -39 0
-12 -20 -27 -49 0
-12 -20 -27 -53 0
-12 -20 -27 -59 0
-12 -20 -31 -39 0
-12 -20 -31 -49 0
-12 -20 -31 -53 0
-12 -20 -31 -59 0
-12 -20 -39 -49 0
-12 -20 -39 -53 0
-12 -20 -39 -59 0
-12 -20 -49 -53 0
-12 -20 -49 -59 0
-12 -20 -53 -59 0
-12 -27 -31 -39 0
-12 -27 -31 -49 0
-12 -27 -31 -53 0
-12 -27 -31 -59 0
-12 -27 -39 -49 0
-12 -27 -39 -53 0
-12 -27 -39 -59 0
-12 -27 -49 -53 0
-12 -27 -49 -59 0
-12 -27 -53 -59 0
-12 -31 -39 -49 0
-12 -31 -39 -53 0
-12 -31 -39 -59 0
-12 -31 -49 -53 0
-12 -31 -49 -59 0
-12 -31 -53 -59 0
-12 -39 -49 -53 0
-12 -39 -49 -59 0
-12 -39 -53 -59 0
-12 -49 -53 -59 0
-20 -27 -31 -39 0
-20 -27 -31 -49 0
-20 -27 -31 -53 0
-20 -27 -31 -59 0
-20 -27 -39 -49 0
-20 -27 -39 -53 0
-20 -27 -39 -59 0
-20 -27 -49 -53 0
-20 -27 -49 -59 0
-20 -27 -53 -59 0
-20 -31 -39 -49 0
-20 -31 -39 -53 0
-20 -31 -39 -59 0
-20 -31 -49 -53 0
-20 -31 -49 -59 0
-20 -31 -53 -59 0
-20 -39 -49 -53 0
-20 -39 -49 -59 0
-20 -39 -53 -59 0
-20 -49 -53 -59 0
-27 -31 -39 -49 0
-27 -31 -39 -53 0
-27 -31 -39 -59 0
-27 -31 -49 -53 0
-27 -31 -49 -59 0
-27 -31 -53 -59 0
-27 -39 -49 -53 0
-27 -39 -49 -59 0
-27 -39 -53 -59 0
-27 -49 -53 -59 0
-31 -39 -49 -53 0
-31 -39 -49 -59 0
-31 -39 -53 -59 0
-31 -49 -53 -59 0
-39 -49 -53 -59 0
-5 -14 -19 -24 0
-5 -14 -19 -33 0
-5 -14 -19 -42 0
-5 -14 -19 -47 0
-5 -14 -19 -51 0
-5 -14 -19 -57 0
-5 -14 -24 -33 0
-5 -14 -24 -42 0
-5 -14 -24 -47 0
-5 -14 -24 -51 0
-5 -14 -24 -57 0
-5 -14 -33 -42 0
-5 -14 -33 -47 0
-5 -14 -33 -51 0
-5 -14 -33 -57 0
-5 -14 -42 -47 0
-5 -14 -42 -51 0
-5 -14 -42 -57 0
-5 -14 -47 -51 0
-5 -14 -47 -57 0
-5 -14 -51 -57 0
-5 -19 -24 -33 0
-5 -19 -24 -42 0
-5 -19 -24 -47 0
-5 -19 -24 -51 0
-5 -19 -24 -57 0
-5 -19 -33 -42 0
-5 -19 -33 -47 0
-5 -19 -33 -51 0
-5 -19 -33 -57 0
-5 -19 -42 -47 0
-5 -19 -42 -51 0
-5 -19 -42 -57 0
-5 -19 -47 -51 0
-5 -19 -47 -57 0
-5 -19 -51 -57 0
-5 -24 -33 -42 0
-5 -24 -33 -47 0
-5 -24 -33 -51 0
-5 -24 -33 -57 0
-5 -24 -42 -47 0
-5 -24 -42 -51 0
-5 -24 -42 -57 0
-5 -24 -47 -51 0
-5 -24 -47 -57 0
-5 -24 -51 -57 0
-5 -33 -42 -47 0
-5 -33 -42 -51 0
-5 -33 -42 -57 0
-5 -33 -47 -51 0
-5 -33 -47 -57 0
-5 -33 -51 -57 0
-5 -42 -47 -51 0
-5 -42 -47 -57 0
-5 -42 -51 -57 0
-5 -47 -51 -57 0
-14 -19 -24 -33 0
-14 -19 -24 -42 0
-14 -19 -24 -47 0
-14 -19 -24 -51 0
-14 -19 -24 -57 0
-14 -19 -33 -42 0
-14 -19 -33 -47 0
-14 -19 -33 -51 0
-14 -19 -33 -57 0
-14 -19 -42 -47 0
-14 -19 -42 -51 0
-14 -19 -42 -57 0
-14 -19 -47 -51 0
-14 -19 -47 -57 0
-14 -19 -51 -57 0
-14 -24 -33 -42 0
-14 -24 -33 -47 0
-14 -24 -33 -51 0
-14 -24 -33 -57 0
-14 -24 -42 -47 0
-14 -24 -42 -51 0
-14 -24 -42 -57 0
-14 -24 -47 -51 0
-14 -24 -47 -57 0
-14 -24 -51 -57 0
-14 -33 -42 -47 0
-14 -33 -42 -51 0
-14 -33 -42 -57 0
-14 -33 -47 -51 0
-14 -33 -47 -57 0
-14 -33 -51 -57 0
-14 -42 -47 -51 0
-14 -42 -47 -57 0
-14 -42 -51 -57 0
-14 -47 -51 -57 0
-19 -24 -33 -42 0
-19 -24 -33 -47 0
-19 -24 -33 -51 0
-19 -24 -33 -57 0
-19 -24 -42 -47 0
-19 -24 -42 -51 0
-19 -24 -42 -57 0
-19 -24 -47 -51 0
-19 -24 -47 -57 0
-19 -24 -51 -57 0
-19 -33 -42 -47 0
-19 -33 -42 -51 0
-19 -33 -42 -57 0
-19 -33 -47 -51 0
-19 -33 -47 -57 0
-19 -33 -51 -57 0
-19 -42 -47 -51 0
-19 -42 -47 -57 0
-19 -42 -51 -57 0
-19 -47 -51 -57 0
-24 -33 -42 -47 0
-24 -33 -42 -51 0
-24 -33 -42 -57 0
-24 -33 -47 -51 0
-24 -33 -47 -57 0
-24 -33 -51 -57 0
-24 -42 -47 -51 0
-24 -42 -47 -57 0
-24 -42 -51 -57 0
-24 -47 -51 -57 0
-33 -42 -47 -51 0
-33 -42 -47 -57 0
-33 -42 -51 -57 0
-33 -47 -51 -57 0
-42 -47 -51 -57 0
-2 -13 -15 -26 0
-2 -13 -15 -29 0
-2 -13 -15 -37 0
-2 -13 -15 -44 0
-2 -13 -15 -51 0
-2 -13 -15 -57 0
-2 -13 -26 -29 0
-2 -13 -26 -37 0
-2 -13 -26 -44 0
-2 -13 -26 -51 0
-2 -13 -26 -57 0
-2 -13 -29 -37 0
-2 -13 -29 -44 0
-2 -13 -29 -51 0
-2 -13 -29 -57 0
-2 -13 -37 -44 0
-2 -13 -37 -51 0
-2 -13 -37 -57 0
-2 -13 -44 -51 0
-2 -13 -44 -57 0
-2 -13 -51 -57 0
-2 -15 -26 -29 0
-2 -15 -26 -37 0
-2 -15 -26 -44 0
-2 -15 -26 -51 0
-2 -15 -26 -57 0
-2 -15 -29 -37 0
-2 -15 -29 -44 0
-2 -15 -29 -51 0
-2 -15 -29 -57 0
-2 -15 -37 -44 0
-2 -15 -37 -51 0
-2 -15 -37 -57 0
-2 -15 -44 -51 0
-2 -15 -44 -57 0
-2 -15 -51 -57 0
-2 -26 -29 -37 0
-2 -26 -29 -44 0
-2 -26 -29 -51 0
-2 -26 -29 -57 0
-2 -26 -37 -44 0
-2 -26 -37 -51 0
-2 -26 -37 -57 0
-2 -26 -44 -51 0
-2 -26 -44 -57 0
-2 -26 -51 -57 0
-2 -29 -37 -44 0
-2 -29 -37 -51 0
-2 -29 -37 -57 0
-2 -29 -44 -51 0
-2 -29 -44 -57 0
-2 -29 -51 -57 0
-2 -37 -44 -51 0
-2 -37 -44 -57 0
-2 -37 -51 -57 0
-2 -44 -51 -57 0
-13 -15 -26 -29 0
-13 -15 -26 -37 0
-13 -15 -26 -44 0
-13 -15 -26 -51 0
-13 -15 -26 -57 0
-13 -15 -29 -37 0
-13 -15 -29 -44 0
-13 -15 -29 -51 0
-13 -15 -29 -57 0
-13 -15 -37 -44 0
-13 -15 -37 -51 0
-13 -15 -37 -57 0
-13 -15 -44 -51 0
-13 -15 -44 -57 0
-13 -15 -51 -57 0
-13 -26 -29 -37 0
-13 -26 -29 -44 0
-13 -26 -29 -51 0
-13 -26 -29 -57 0
-13 -26 -37 -44 0
-13 -26 -37 -51 0
-13 -26 -37 -57 0
-13 -26 -44 -51 0
-13 -26 -44 -57 0
-13 -26 -51 -57 0
-13 -29 -37 -44 0
-13 -29 -37 -51 0
-13 -29 -37 -57 0
-13 -29 -44 -51 0
-13 -29 -44 -57 0
-13 -29 -51 -57 0
-13 -37 -44 -51 0
-13 -37 -44 -57 0
-13 -37 -51 -57 0
-13 -44 -51 -57 0
-15 -26 -29 -37 0
-15 -26 -29 -44 0
-15 -26 -29 -51 0
-15 -26 -29 -57 0
-15 -26 -37 -44 0
-15 -26 -37 -51 0
-15 -26 -37 -57 0
-15 -26 -44 -51 0
-15 -26 -44 -57 0
-15 -26 -51 -57 0
-15 -29 -37 -44 0
-15 -29 -37 -51 0
-15 -29 -37 -57 0
-15 -29 -44 -51 0
-15 -29 -44 -57 0
-15 -29 -51 -57 0
-15 -37 -44 -51 0
-15 -37 -44 -57 0
-15 -37 -51 -57 0
-15 -44 -51 -57 0
-26 -29 -37 -44 0
-26 -29 -37 -51 0
-26 -29 -37 -57 0
-26 -29 -44 -51 0
-26 -29 -44 -57 0
-26 -29 -51 -57 0
-26 -37 -44 -51 0
-26 -37 -44 -57 0
-26 -37 -51 -57 0
-26 -44 -51 -57 0
-29 -37 -44 -51 0
-29 -37 -44 -57 0
-29 -37 -51 -57 0
-29 -44 -51 -57 0
-37 -44 -51 -57 0
-6 -8 -20 -25 0
-6 -8 -20 -31 0
-6 -8 -20 -36 0
-6 -8 -20 -44 0
-6 -8 -20 -51 0
-6 -8 -20 -58 0
-6 -8 -25 -31 0
-6 -8 -25 -36 0
-6 -8 -25 -44 0
-6 -8 -25 -51 0
-6 -8 -25 -58 0
-6 -8 -31 -36 0
-6 -8 -31 -44 0
-6 -8 -31 -51 0
-6 -8 -31 -58 0
-6 -8 -36 -44 0
-6 -8 -36 -51 0
-6 -8 -36 -58 0
-6 -8 -44 -51 0
-6 -8 -44 -58 0
-6 -8 -51 -58 0
-6 -20 -25 -31 0
-6 -20 -25 -36 0
-6 -20 -25 -44 0
-6 -20 -25 -51 0
-6 -20 -25 -58 0
-6 -20 -31 -36 0
-6 -20 -31 -44 0
-6 -20 -31 -51 0
-6 -20 -31 -58 0
-6 -20 -36 -44 0
-6 -20 -36 -51 0
-6 -20 -36 -58 0
-6 -20 -44 -51 0
-6 -20 -44 -58 0
-6 -20 -51 -58 0
-6 -25 -31 -36 0
-6 -25 -31 -44 0
-6 -25 -31 -51 0
-6 -25 -31 -58 0
-6 -25 -36 -44 0
-6 -25 -36 -51 0
-6 -25 -36 -58 0
-6 -25 -44 -51 0
-6 -25 -44 -58 0
-6 -25 -51 -58 0
-6 -31 -36 -44 0
-6 -31 -36 -51 0
-6 -31 -36 -58 0
-6 -31 -44 -51 0
-6 -31 -44 -58 0
-6 -31 -51 -58 0
-6 -36 -44 -51 0
-6 -36 -44 -58 0
-6 -36 -51 -58 0
-6 -44 -51 -58 0
-8 -20 -25 -31 0
-8 -20 -25 -36 0
-8 -20 -25 -44 0
-8 -20 -25 -51 0
-8 -20 -25 -58 0
-8 -20 -31 -36 0
-8 -20 -31 -44 0
-8 -20 -31 -51 0
-8 -20 -31 -58 0
-8 -20 -36 -44 0
-8 -20 -36 -51 0
-8 -20 -36 -58 0
-8 -20 -44 -51 0
-8 -20 -44 -58 0
-8 -20 -51 -58 0
-8 -25 -31 -36 0
-8 -25 -31 -44 0
-8 -25 -31 -51 0
-8 -25 -31 -58 0
-8 -25 -36 -44 0
-8 -25 -36 -51 0
-8 -25 -36 -58 0
-8 -25 -44 -51 0
-8 -25 -44 -58 0
-8 -25 -51 -58 0
-8 -31 -36 -44 0
-8 -31 -36 -51 0
-8 -31 -36 -58 0
-8 -31 -44 -51 0
-8 -31 -44 -58 0
-8 -31 -51 -58 0
-8 -36 -44 -51 0
-8 -36 -44 -58 0
-8 -36 -51 -58 0
-8 -44 -51 -58 0
-20 -25 -31 -36 0
-20 -25 -31 -44 0
-20 -25 -31 -51 0
-20 -25 -31 -58 0
-20 -25 -36 -44 0
-20 -25 -36 -51 0
-20 -25 -36 -58 0
-20 -25 -44 -51 0
-20 -25 -44 -58 0
-20 -25 -51 -58 0
-20 -31 -36 -44 0
-20 -31 -36 -51 0
-20 -31 -36 -58 0
-20 -31 -44 -51 0
-20 -31 -44 -58 0
-20 -31 -51 -58 0
-20 -36 -44 -51 0
-20 -36 -44 -58 0
-20 -36 -51 -58 0
-20 -44 -51 -58 0
-25 -31 -36 -44 0
-25 -31 -36 -51 0
-25 -31 -36 -58 0
-25 -31 -44 -51 0
-25 -31 -44 -58 0
-25 -31 -51 -58 0
-25 -36 -44 -51 0
-25 -36 -44 -58 0
-25 -36 -51 -58 0
-25 -44 -51 -58 0
-31 -36 -44 -51 0
-31 -36 -44 -58 0
-31 -36 -51 -58 0
-31 -44 -51 -58 0
-36 -44 -51 -58 0
-7 -9 -16 -22 0
-7 -9 -16 -34 0
-7 -9 -16 -40 0
-7 -9 -16 -44 0
-7 -9 -16 -54 0
-7 -9 -16 -60 0
-7 -9 -22 -34 0
-7 -9 -22 -40 0
-7 -9 -22 -44 0
-7 -9 -22 -54 0
-7 -9 -22 -60 0
-7 -9 -34 -40 0
-7 -9 -34 -44 0
-7 -9 -34 -54 0
-7 -9 -34 -60 0
-7 -9 -40 -44 0
-7 -9 -40 -54 0
-7 -9 -40 -60 0
-7 -9 -44 -54 0
-7 -9 -44 -60 0
-7 -9 -54 -60 0
-7 -16 -22 -34 0
-7 -16 -22 -40 0
-7 -16 -22 -44 0
-7 -16 -22 -54 0
-7 -16 -22 -60 0
-7 -16 -34 -40 0
-7 -16 -34 -44 0
-7 -16 -34 -54 0
-7 -16 -34 -60 0
-7 -16 -40 -44 0
-7 -16 -40 -54 0
-7 -16 -40 -60 0
-7 -16 -44 -54 0
-7 -16 -44 -60 0
-7 -16 -54 -60 0
-7 -22 -34 -40 0
-7 -22 -34 -44 0
-7 -22 -34 -54 0
-7 -22 -34 -60 0
-7 -22 -40 -44 0
-7 -22 -40 -54 0
-7 -22 -40 -60 0
-7 -22 -44 -54 0
-7 -22 -44 -60 0
-7 -22 -54 -60 0
-7 -34 -40 -44 0
-7 -34 -40 -54 0
-7 -34 -40 -60 0
-7 -34 -44 -54 0
-7 -34 -44 -60 0
-7 -34 -54 -60 0
-7 -40 -44 -54 0
-7 -40 -44 -60 0
-7 -40 -54 -60 0
-7 -44 -54 -60 0
-9 -16 -22 -34 0
-9 -16 -22 -40 0
-9 -16 -22 -44 0
-9 -16 -22 -54 0
-9 -16 -22 -60 0
-9 -16 -34 -40 0
-9 -16 -34 -44 0
-9 -16 -34 -54 0
-9 -16 -34 -60 0
-9 -16 -40 -44 0
-9 -16 -40 -54 0
-9 -16 -40 -60 0
-9 -16 -44 -54 0
-9 -16 -44 -60 0
-9 -16 -54 -60 0
-9 -22 -34 -40 0
-9 -22 -34 -44 0
-9 -22 -34 -54 0
-9 -22 -34 -60 0
-9 -22 -40 -44 0
-9 -22 -40 -54 0
-9 -22 -40 -60 0
-9 -22 -44 -54 0
-9 -22 -44 -60 0
-9 -22 -54 -60 0
-9 -34 -40 -44 0
-9 -34 -40 -54 0
-9 -34 -40 -60 0
-9 -34 -44 -54 0
-9 -34 -44 -60 0
-9 -34 -54 -60 0
-9 -40 -44 -54 0
-9 -40 -44 -60 0
-9 -40 -54 -60 0
-9 -44 -54 -60 0
-16 -22 -34 -40 0
-16 -22 -34 -44 0
-16 -22 -34 -54 0
-16 -22 -34 -60 0
-16 -22 -40 -44 0
-16 -22 -40 -54 0
-16 -22 -40 -60 0
-16 -22 -44 -54 0
-16 -22 -44 -60 0
-16 -22 -54 -60 0
-16 -34 -40 -44 0
-16 -34 -40 -54 0
-16 -34 -40 -60 0
-16 -34 -44 -54 0
-16 -34 -44 -60 0
-16 -34 -54 -60 0
-16 -40 -44 -54 0
-16 -40 -44 -60 0
-16 -40 -54 -60 0
-16 -44 -54 -60 0
-22 -34 -40 -44 0
-22 -34 -40 -54 0
-22 -34 -40 -60 0
-22 -34 -44 -54 0
-22 -34 -44 -60 0
-22 -34 -54 -60 0
-22 -40 -44 -54 0
-22 -40 -44 -60 0
-22 -40 -54 -60 0
-22 -44 -54 -60 0
-34 -40 -44 -54 0
-34 -40 -44 -60 0
-34 -40 -54 -60 0
-34 -44 -54 -60 0
-40 -44 -54 -60 0
-3 -13 -19 -25 0
-3 -13 -19 -33 0
-3 -13 -19 -42 0
-3 -13 -19 -46 0
-3 -13 -19 -56 0
-3 -13 -19 -63 0
-3 -13 -25 -33 0
-3 -13 -25 -42 0
-3 -13 -25 -46 0
-3 -13 -25 -56 0
-3 -13 -25 -63 0
-3 -13 -33 -42 0
-3 -13 -33 -46 0
-3 -13 -33 -56 0
-3 -13 -33 -63 0
-3 -13 -42 -46 0
-3 -13 -42 -56 0
-3 -13 -42 -63 0
-3 -13 -46 -56 0
-3 -13 -46 -63 0
-3 -13 -56 -63 0
-3 -19 -25 -33 0
-3 -19 -25 -42 0
-3 -19 -25 -46 0
-3 -19 -25 -56 0
-3 -19 -25 -63 0
-3 -19 -33 -42 0
-3 -19 -33 -46 0
-3 -19 -33 -56 0
-3 -19 -33 -63 0
-3 -19 -42 -46 0
-3 -19 -42 -56 0
-3 -19 -42 -63 0
-3 -19 -46 -56 0
-3 -19 -46 -63 0
-3 -19 -56 -63 0
-3 -25 -33 -42 0
-3 -25 -33 -46 0
-3 -25 -33 -56 0
-3 -25 -33 -63 0
-3 -25 -42 -46 0
-3 -25 -42 -56 0
-3 -25 -42 -63 0
-3 -25 -46 -56 0
-3 -25 -46 -63 0
-3 -25 -56 -63 0
-3 -33 -42 -46 0
-3 -33 -42 -56 0
-3 -33 -42 -63 0
-3 -33 -46 -56 0
-3 -33 -46 -63 0
-3 -33 -56 -63 0
-3 -42 -46 -56 0
-3 -42 -46 -63 0
-3 -42 -56 -63 0
-3 -46 -56 -63 0
-13 -19 -25 -33 0
-13 -19 -25 -42 0
-13 -19 -25 -46 0
-13 -19 -25 -56 0
-13 -19 -25 -63 0
-13 -19 -33 -42 0
-13 -19 -33 -46 0
-13 -19 -33 -56 0
-13 -19 -33 -63 0
-13 -19 -42 -46 0
-13 -19 -42 -56 0
-13 -19 -42 -63 0
-13 -19 -46 -56 0
-13 -19 -46 -63 0
-13 -19 -56 -63 0
-13 -25 -33 -42 0
-13 -25 -33 -46 0
-13 -25 -33 -56 0
-13 -25 -33 -63 0
-13 -25 -42 -46 0
-13 -25 -42 -56 0
-13 -25 -42 -63 0
-13 -25 -46 -56 0
-13 -25 -46 -63 0
-13 -25 -56 -63 0
-13 -33 -42 -46 0
-13 -33 -42 -56 0
-13 -33 -42 -63 0
-13 -33 -46 -56 0
-13 -33 -46 -63 0
-13 -33 -56 -63 0
-13 -42 -46 -56 0
-13 -42 -46 -63 0
-13 -42 -56 -63 0
-13 -46 -56 -63 0
-19 -25 -33 -42 0
-19 -25 -33 -46 0
-19 -25 -33 -56 0
-19 -25 -33 -63 0
-19 -25 -42 -46 0
-19 -25 -42 -56 0
-19 -25 -42 -63 0
-19 -25 -46 -56 0
-19 -25 -46 -63 0
-19 -25 -56 -63 0
-19 -33 -42 -46 0
-19 -33 -42 -56 0
-19 -33 -42 -63 0
-19 -33 -46 -56 0
-19 -33 -46 -63 0
-19 -33 -56 -63 0
-19 -42 -46 -56 0
-19 -42 -46 -63 0
-19 -42 -56 -63 0
-19 -46 -56 -63 0
-25 -33 -42 -46 0
-25 -33 -42 -56 0
-25 -33 -42 -63 0
-25 -33 -46 -56 0
-25 -33 -46 -63 0
-25 -33 -56 -63 0
-25 -42 -46 -56 0
-25 -42 -46 -63 0
-25 -42 -56 -63 0
-25 -46 -56 -63 0
-33 -42 -46 -56 0
-33 -42 -46 -63 0
-33 -42 -56 -63 0
-33 -46 -56 -63 0
-42 -46 -56 -63 0
-5 -12 -15 -26 0
-5 -12 -15 -34 0
-5 -12 -15 -40 0
-5 -12 -15 -48 0
-5 -12 -15 -50 0
-5 -12 -15 -58 0
-5 -12 -26 -34 0
-5 -12 -26 -40 0
-5 -12 -26 -48 0
-5 -12 -26 -50 0
-5 -12 -26 -58 0
-5 -12 -34 -40 0
-5 -12 -34 -48 0
-5 -12 -34 -50 0
-5 -12 -34 -58 0
-5 -12 -40 -48 0
-5 -12 -40 -50 0
-5 -12 -40 -58 0
-5 -12 -48 -50 0
-5 -12 -48 -58 0
-5 -12 -50 -58 0
-5 -15 -26 -34 0
-5 -15 -26 -40 0
-5 -15 -26 -48 0
-5 -15 -26 -50 0
-5 -15 -26 -58 0
-5 -15 -34 -40 0
-5 -15 -34 -48 0
-5 -15 -34 -50 0
-5 -15 -34 -58 0
-5 -15 -40 -48 0
-5 -15 -40 -50 0
-5 -15 -40 -58 0
-5 -15 -48 -50 0
-5 -15 -48 -58 0
-5 -15 -50 -58 0
-5 -26 -34 -40 0
-5 -26 -34 -48 0
-5 -26 -34 -50 0
-5 -26 -34 -58 0
-5 -26 -40 -48 0
-5 -26 -40 -50 0
-5 -26 -40 -58 0
-5 -26 -48 -50 0
-5 -26 -48 -58 0
-5 -26 -50 -58 0
-5 -34 -40 -48 0
-5 -34 -40 -50 0
-5 -34 -40 -58 0
-5 -34 -48 -50 0
-5 -34 -48 -58 0
-5 -34 -50 -58 0
-5 -40 -48 -50 0
-5 -40 -48 -58 0
-5 -40 -50 -58 0
-5 -48 -50 -58 0
-12 -15 -26 -34 0
-12 -15 -26 -40 0
-12 -15 -26 -48 0
-12 -15 -26 -50 0
-12 -15 -26 -58 0
-12 -15 -34 -40 0
-12 -15 -34 -48 0
-12 -15 -34 -50 0
-12 -15 -34 -58 0
-12 -15 -40 -48 0
-12 -15 -40 -50 0
-12 -15 -40 -58 0
-12 -15 -48 -50 0
-12 -15 -48 -58 0
-12 -15 -50 -58 0
-12 -26 -34 -40 0
-12 -26 -34 -48 0
-12 -26 -34 -50 0
-12 -26 -34 -58 0
-12 -26 -40 -48 0
-12 -26 -40 -50 0
-12 -26 -40 -58 0
-12 -26 -48 -50 0
-12 -26 -48 -58 0
-12 -26 -50 -58 0
-12 -34 -40 -48 0
-12 -34 -40 -50 0
-12 -34 -40 -58 0
-12 -34 -48 -50 0
-12 -34 -48 -58 0
-12 -34 -50 -58 0
-12 -40 -48 -50 0
-12 -40 -48 -58 0
-12 -40 -50 -58 0
-12 -48 -50 -58 0
-15 -26 -34 -40 0
-15 -26 -34 -48 0
-15 -26 -34 -50 0
-15 -26 -34 -58 0
-15 -26 -40 -48 0
-15 -26 -40 -50 0
-15 -26 -40 -58 0
-15 -26 -48 -50 0
-15 -26 -48 -58 0
-15 -26 -50 -58 0
-15 -34 -40 -48 0
-15 -34 -40 -50 0
-15 -34 -40 -58 0
-15 -34 -48 -50 0
-15 -34 -48 -58 0
-15 -34 -50 -58 0
-15 -40 -48 -50 0
-15 -40 -48 -58 0
-15 -40 -50 -58 0
-15 -48 -50 -58 0
-26 -34 -40 -48 0
-26 -34 -40 -50 0
-26 -34 -40 -58 0
-26 -34 -48 -50 0
-26 -34 -48 -58 0
-26 -34 -50 -58 0
-26 -40 -48 -50 0
-26 -40 -48 -58 0
-26 -40 -50 -58 0
-26 -48 -50 -58 0
-34 -40 -48 -50 0
-34 -40 -48 -58 0
-34 -40 -50 -58 0
-34 -48 -50 -58 0
-40 -48 -50 -58 0
-3 -11 -16 -24 0
-3 -11 -16 -32 0
-3 -11 -16 -37 0
-3 -11 -16 -49 0
-3 -11 -16 -52 0
-3 -11 -16 -61 0
-3 -11 -24 -32 0
-3 -11 -24 -37 0
-3 -11 -24 -49 0
-3 -11 -24 -52 0
-3 -11 -24 -61 0
-3 -11 -32 -37 0
-3 -11 -32 -49 0
-3 -11 -32 -52 0
-3 -11 -32 -61 0
-3 -11 -37 -49 0
-3 -11 -37 -52 0
-3 -11 -37 -61 0
-3 -11 -49 -52 0
-3 -11 -49 -61 0
-3 -11 -52 -61 0
-3 -16 -24 -32 0
-3 -16 -24 -37 0
-3 -16 -24 -49 0
-3 -16 -24 -52 0
-3 -16 -24 -61 0
-3 -16 -32 -37 0
-3 -16 -32 -49 0
-3 -16 -32 -52 0
-3 -16 -32 -61 0
-3 -16 -37 -49 0
-3 -16 -37 -52 0
-3 -16 -37 -61 0
-3 -16 -49 -52 0
-3 -16 -49 -61 0
-3 -16 -52 -61 0
-3 -24 -32 -37 0
-3 -24 -32 -49 0
-3 -24 -32 -52 0
-3 -24 -32 -61 0
-3 -24 -37 -49 0
-3 -24 -37 -52 0
-3 -24 -37 -61 0
-3 -24 -49 -52 0
-3 -24 -49 -61 0
-3 -24 -52 -61 0
-3 -32 -37 -49 0
-3 -32 -37 -52 0
-3 -32 -37 -61 0
-3 -32 -49 -52 0
-3 -32 -49 -61 0
-3 -32 -52 -61 0
-3 -37 -49 -52 0
-3 -37 -49 -61 0
-3 -37 -52 -61 0
-3 -49 -52 -61 0
-11 -16 -24 -32 0
-11 -16 -24 -37 0
-11 -16 -24 -49 0
-11 -16 -24 -52 0
-11 -16 -24 -61 0
-11 -16 -32 -37 0
-11 -16 -32 -49 0
-11 -16 -32 -52 0
-11 -16 -32 -61 0
-11 -16 -37 -49 0
-11 -16 -37 -52 0
-11 -16 -37 -61 0
-11 -16 -49 -52 0
-11 -16 -49 -61 0
-11 -16 -52 -61 0
-11 -24 -32 -37 0
-11 -24 -32 -49 0
-11 -24 -32 -52 0
-11 -24 -32 -61 0
-11 -24 -37 -49 0
-11 -24 -37 -52 0
-11 -24 -37 -61 0
-11 -24 -49 -52 0
-11 -24 -49 -61 0
-11 -24 -52 -61 0
-11 -32 -37 -49 0
-11 -32 -37 -52 0
-11 -32 -37 -61 0
-11 -32 -49 -52 0
-11 -32 -49 -61 0
-11 -32 -52 -61 0
-11 -37 -49 -52 0
-11 -37 -49 -61 0
-11 -37 -52 -61 0
-11 -49 -52 -61 0
-16 -24 -32 -37 0
-16 -24 -32 -49 0
-16 -24 -32 -52 0
-16 -24 -32 -61 0
-16 -24 -37 -49 0
-16 -24 -37 -52 0
-16 -24 -37 -61 0
-16 -24 -49 -52 0
-16 -24 -49 -61 0
-16 -24 -52 -61 0
-16 -32 -37 -49 0
-16 -32 -37 -52 0
-16 -32 -37 -61 0
-16 -32 -49 -52 0
-16 -32 -49 -61 0
-16 -32 -52 -61 0
-16 -37 -49 -52 0
-16 -37 -49 -61 0
-16 -37 -52 -61 0
-16 -49 -52 -61 0
-24 -32 -37 -49 0
-24 -32 -37 -52 0
-24 -32 -37 -61 0
-24 -32 -49 -52 0
-24 -32 -49 -61 0
-24 -32 -52 -61 0
-24 -37 -49 -52 0
-24 -37 -49 -61 0
-24 -37 -52 -61 0
-24 -49 -52 -61 0
-32 -37 -49 -52 0
-32 -37 -49 -61 0
-32 -37 -52 -61 0
-32 -49 -52 -61 0
-37 -49 -52 -61 0
-2 -11 -18 -22 0
-2 -11 -18 -34 0
-2 -11 -18 -40 0
-2 -11 -18 -45 0
-2 -11 -18 -53 0
-2 -11 -18 -62 0
-2 -11 -22 -34 0
-2 -11 -22 -40 0
-2 -11 -22 -45 0
-2 -11 -22 -53 0
-2 -11 -22 -62 0
-2 -11 -34 -40 0
-2 -11 -34 -45 0
-2 -11 -34 -53 0
-2 -11 -34 -62 0
-2 -11 -40 -45 0
-2 -11 -40 -53 0
-2 -11 -40 -62 0
-2 -11 -45 -53 0
-2 -11 -45 -62 0
-2 -11 -53 -62 0
-2 -18 -22 -34 0
-2 -18 -22 -40 0
-2 -18 -22 -45 0
-2 -18 -22 -53 0
-2 -18 -22 -62 0
-2 -18 -34 -40 0
-2 -18 -34 -45 0
-2 -18 -34 -53 0
-2 -18 -34 -62 0
-2 -18 -40 -45 0
-2 -18 -40 -53 0
-2 -18 -40 -62 0
-2 -18 -45 -53 0
-2 -18 -45 -62 0
-2 -18 -53 -62 0
-2 -22 -34 -40 0
-2 -22 -34 -45 0
-2 -22 -34 -53 0
-2 -22 -34 -62 0
-2 -22 -40 -45 0
-2 -22 -40 -53 0
-2 -22 -40 -62 0
-2 -22 -45 -53 0
-2 -22 -45 -62 0
-2 -22 -53 -62 0
-2 -34 -40 -45 0
-2 -34 -40 -53 0
-2 -34 -40 -62 0
-2 -34 -45 -53 0
-2 -34 -45 -62 0
-2 -34 -53 -62 0
-2 -40 -45 -53 0
-2 -40 -45 -62 0
-2 -40 -53 -62 0
-2 -45 -53 -62 0
-11 -18 -22 -34 0
-11 -18 -22 -40 0
-11 -18 -22 -45 0
-11 -18 -22 -53 0
-11 -18 -22 -62 0
-11 -18 -34 -40 0
-11 -18 -34 -45 0
-11 -18 -34 -53 0
-11 -18 -34 -62 0
-11 -18 -40 -45 0
-11 -18 -40 -53 0
-11 -18 -40 -62 0
-11 -18 -45 -53 0
-11 -18 -45 -62 0
-11 -18 -53 -62 0
-11 -22 -34 -40 0
-11 -22 -34 -45 0
-11 -22 -34 -53 0
-11 -22 -34 -62 0
-11 -22 -40 -45 0
-11 -22 -40 -53 0
-11 -22 -40 -62 0
-11 -22 -45 -53 0
-11 -22 -45 -62 0
-11 -22 -53 -62 0
-11 -34 -40 -45 0
-11 -34 -40 -53 0
-11 -34 -40 -62 0
-11 -34 -45 -53 0
-11 -34 -45 -62 0
-11 -34 -53 -62 0
-11 -40 -45 -53 0
-11 -40 -45 -62 0
-11 -40 -53 -62 0
-11 -45 -53 -62 0
-18 -22 -34 -40 0
-18 -22 -34 -45 0
-18 -22 -34 -53 0
-18 -22 -34 -62 0
-18 -22 -40 -45 0
-18 -22 -40 -53 0
-18 -22 -40 -62 0
-18 -22 -45 -53 0
-18 -22 -45 -62 0
-18 -22 -53 -62 0
-18 -34 -40 -45 0
-18 -34 -40 -53 0
-18 -34 -40 -62 0
-18 -34 -45 -53 0
-18 -34 -45 -62 0
-18 -34 -53 -62 0
-18 -40 -45 -53 0
-18 -40 -45 -62 0
-18 -40 -53 -62 0
-18 -45 -53 -62 0
-22 -34 -40 -45 0
-22 -34 -40 -53 0
-22 -34 -40 -62 0
-22 -34 -45 -53 0
-22 -34 -45 -62 0
-22 -34 -53 -62 0
-22 -40 -45 -53 0
-22 -40 -45 -62 0
-22 -40 -53 -62 0
-22 -45 -53 -62 0
-34 -40 -45 -53 0
-34 -40 -45 -62 0
-34 -40 -53 -62 0
-34 -45 -53 -62 0
-40 -45 -53 -62 0
-1 -11 -16 -26 0
-1 -11 -16 -35 0
-1 -11 -16 -40 0
-1 -11 -16 -45 0
-1 -11 -16 -54 0
-1 -11 -16 -57 0
-1 -11 -26 -35 0
-1 -11 -26 -40 0
-1 -11 -26 -45 0
-1 -11 -26 -54 0
-1 -11 -26 -57 0
-1 -11 -35 -40 0
-1 -11 -35 -45 0
-1 -11 -35 -54 0
-1 -11 -35 -57 0
-1 -11 -40 -45 0
-1 -11 -40 -54 0
-1 -11 -40 -57 0
-1 -11 -45 -54 0
-1 -11 -45 -57 0
-1 -11 -54 -57 0
-1 -16 -26 -35 0
-1 -16 -26 -40 0
-1 -16 -26 -45 0
-1 -16 -26 -54 0
-1 -16 -26 -57 0
-1 -16 -35 -40 0
-1 -16 -35 -45 0
-1 -16 -35 -54 0
-1 -16 -35 -57 0
-1 -16 -40 -45 0
-1 -16 -40 -54 0
-1 -16 -40 -57 0
-1 -16 -45 -54 0
-1 -16 -45 -57 0
-1 -16 -54 -57 0
-1 -26 -35 -40 0
-1 -26 -35 -45 0
-1 -26 -35 -54 0
-1 -26 -35 -57 0
-1 -26 -40 -45 0
-1 -26 -40 -54 0
-1 -26 -40 -57 0
-1 -26 -45 -54 0
-1 -26 -45 -57 0
-1 -26 -54 -57 0
-1 -35 -40 -45 0
-1 -35 -40 -54 0
-1 -35 -40 -57 0
-1 -35 -45 -54 0
-1 -35 -45 -57 0
-1 -35 -54 -57 0
-1 -40 -45 -54 0
-1 -40 -45 -57 0
-1 -40 -54 -57 0
-1 -45 -54 -57 0
-11 -16 -26 -35 0
-11 -16 -26 -40 0
-11 -16 -26 -45 0
-11 -16 -26 -54 0
-11 -16 -26 -57 0
-11 -16 -35 -40 0
-11 -16 -35 -45 0
-11 -16 -35 -54 0
-11 -16 -35 -57 0
-11 -16 -40 -45 0
-11 -16 -40 -54 0
-11 -16 -40 -57 0
-11 -16 -45 -54 0
-11 -16 -45 -57 0
-11 -16 -54 -57 0
-11 -26 -35 -40 0
-11 -26 -35 -45 0
-11 -26 -35 -54 0
-11 -26 -35 -57 0
-11 -26 -40 -45 0
-11 -26 -40 -54 0
-11 -26 -40 -57 0
-11 -26 -45 -54 0
-11 -26 -45 -57 0
-11 -26 -54 -57 0
-11 -35 -40 -45 0
-11 -35 -40 -54 0
-11 -35 -40 -57 0
-11 -35 -45 -54 0
-11 -35 -45 -57 0
-11 -35 -54 -57 0
-11 -40 -45 -54 0
-11 -40 -45 -57 0
-11 -40 -54 -57 0
-11 -45 -54 -57 0
-16 -26 -35 -40 0
-16 -26 -35 -45 0
-16 -26 -35 -54 0
-16 -26 -35 -57 0
-16 -26 -40 -45 0
-16 -26 -40 -54 0
-16 -26 -40 -57 0
-16 -26 -45 -54 0
-16 -26 -45 -57 0
-16 -26 -54 -57 0
-16 -35 -40 -45 0
-16 -35 -40 -54 0
-16 -35 -40 -57 0
-16 -35 -45 -54 0
-16 -35 -45 -57 0
-16 -35 -54 -57 0
-16 -40 -45 -54 0
-16 -40 -45 -57 0
-16 -40 -54 -57 0
-16 -45 -54 -57 0
-26 -35 -40 -45 0
-26 -35 -40 -54 0
-26 -35 -40 -57 0
-26 -35 -45 -54 0
-26 -35 -45 -57 0
-26 -35 -54 -57 0
-26 -40 -45 -54 0
-26 -40 -45 -57 0
-26 -40 -54 -57 0
-26 -45 -54 -57 0
-35 -40 -45 -54 0
-35 -40 -45 -57 0
-35 -40 -54 -57 0
-35 -45 -54 -57 0
-40 -45 -54 -57 0
-6 -10 -21 -26 0
-6 -10 -21 -33 0
-6 -10 -21 -41 0
-6 -10 -21 -47 0
-6 -10 -21 -54 0
-6 -10 -21 -61 0
-6 -10 -26 -33 0
-6 -10 -26 -41 0
-6 -10 -26 -47 0
-6 -10 -26 -54 0
-6 -10 -26 -61 0
-6 -10 -33 -41 0
-6 -10 -33 -47 0
-6 -10 -33 -54 0
-6 -10 -33 -61 0
-6 -10 -41 -47 0
-6 -10 -41 -54 0
-6 -10 -41 -61 0
-6 -10 -47 -54 0
-6 -10 -47 -61 0
-6 -10 -54 -61 0
-6 -21 -26 -33 0
-6 -21 -26 -41 0
-6 -21 -26 -47 0
-6 -21 -26 -54 0
-6 -21 -26 -61 0
-6 -21 -33 -41 0
-6 -21 -33 -47 0
-6 -21 -33 -54 0
-6 -21 -33 -61 0
-6 -21 -41 -47 0
-6 -21 -41 -54 0
-6 -21 -41 -61 0
-6 -21 -47 -54 0
-6 -21 -47 -61 0
-6 -21 -54 -61 0
-6 -26 -33 -41 0
-6 -26 -33 -47 0
-6 -26 -33 -54 0
-6 -26 -33 -61 0
-6 -26 -41 -47 0
-6 -26 -41 -54 0
-6 -26 -41 -61 0
-6 -26 -47 -54 0
-6 -26 -47 -61 0
-6 -26 -54 -61 0
-6 -33 -41 -47 0
-6 -33 -41 -54 0
-6 -33 -41 -61 0
-6 -33 -47 -54 0
-6 -33 -47 -61 0
-6 -33 -54 -61 0
-6 -41 -47 -54 0
-6 -41 -47 -61 0
-6 -41 -54 -61 0
-6 -47 -54 -61 0
-10 -21 -26 -33 0
-10 -21 -26 -41 0
-10 -21 -26 -47 0
-10 -21 -26 -54 0
-10 -21 -26 -61 0
-10 -21 -33 -41 0
-10 -21 -33 -47 0
-10 -21 -33 -54 0
-10 -21 -33 -61 0
-10 -21 -41 -47 0
-10 -21 -41 -54 0
-10 -21 -41 -61 0
-10 -21 -47 -54 0
-10 -21 -47 -61 0
-10 -21 -54 -61 0
-10 -26 -33 -41 0
-10 -26 -33 -47 0
-10 -26 -33 -54 0
-10 -26 -33 -61 0
-10 -26 -41 -47 0
-10 -26 -41 -54 0
-10 -26 -41 -61 0
-10 -26 -47 -54 0
-10 -26 -47 -61 0
-10 -26 -54 -61 0
-10 -33 -41 -47 0
-10 -33 -41 -54 0
-10 -33 -41 -61 0
-10 -33 -47 -54 0
-10 -33 -47 -61 0
-10 -33 -54 -61 0
-10 -41 -47 -54 0
-10 -41 -47 -61 0
-10 -41 -54 -61 0
-10 -47 -54 -61 0
-21 -26 -33 -41 0
-21 -26 -33 -47 0
-21 -26 -33 -54 0
-21 -26 -33 -61 0
-21 -26 -41 -47 0
-21 -26 -41 -54 0
-21 -26 -41 -61 0
-21 -26 -47 -54 0
-21 -26 -47 -61 0
-21 -26 -54 -61 0
-21 -33 -41 -47 0
-21 -33 -41 -54 0
-21 -33 -41 -61 0
-21 -33 -47 -54 0
-21 -33 -47 -61 0
-21 -33 -54 -61 0
-21 -41 -47 -54 0
-21 -41 -47 -61 0
-21 -41 -54 -61 0
-21 -47 -54 -61 0
-26 -33 -41 -47 0
-26 -33 -41 -54 0
-26 -33 -41 -61 0
-26 -33 -47 -54 0
-26 -33 -47 -61 0
-26 -33 -54 -61 0
-26 -41 -47 -54 0
-26 -41 -47 -61 0
-26 -41 -54 -61 0
-26 -47 -54 -61 0
-33 -41 -47 -54 0
-33 -41 -47 -61 0
-33 -41 -54 -61 0
-33 -47 -54 -61 0
-41 -47 -54 -61 0
-4 -9 -15 -28 0
-4 -9 -15 -35 0
-4 -9 -15 -40 0
-4 -9 -15 -45 0
-4 -9 -15 -55 0
-4 -9 -15 -63 0
-4 -9 -28 -35 0
-4 -9 -28 -40 0
-4 -9 -28 -45 0
-4 -9 -28 -55 0
-4 -9 -28 -63 0
-4 -9 -35 -40 0
-4 -9 -35 -45 0
-4 -9 -35 -55 0
-4 -9 -35 -63 0
-4 -9 -40 -45 0
-4 -9 -40 -55 0
-4 -9 -40 -63 0
-4 -9 -45 -55 0
-4 -9 -45 -63 0
-4 -9 -55 -63 0
-4 -15 -28 -35 0
-4 -15 -28 -40 0
-4 -15 -28 -45 0
-4 -15 -28 -55 0
-4 -15 -28 -63 0
-4 -15 -35 -40 0
-4 -15 -35 -45 0
-4 -15 -35 -55 0
-4 -15 -35 -63 0
-4 -15 -40 -45 0
-4 -15 -40 -55 0
-4 -15 -40 -63 0
-4 -15 -45 -55 0
-4 -15 -45 -63 0
-4 -15 -55 -63 0
-4 -28 -35 -40 0
-4 -28 -35 -45 0
-4 -28 -35 -55 0
-4 -28 -35 -63 0
-4 -28 -40 -45 0
-4 -28 -40 -55 0
-4 -28 -40 -63 0
-4 -28 -45 -55 0
-4 -28 -45 -63 0
-4 -28 -55 -63 0
-4 -35 -40 -45 0
-4 -35 -40 -55 0
-4 -35 -40 -63 0
-4 -35 -45 -55 0
-4 -35 -45 -63 0
-4 -35 -55 -63 0
-4 -40 -45 -55 0
-4 -40 -45 -63 0
-4 -40 -55 -63 0
-4 -45 -55 -63 0
-9 -15 -28 -35 0
-9 -15 -28 -40 0
-9 -15 -28 -45 0
-9 -15 -28 -55 0
-9 -15 -28 -63 0
-9 -15 -35 -40 0
-9 -15 -35 -45 0
-9 -15 -35 -55 0
-9 -15 -35 -63 0
-9 -15 -40 -45 0
-9 -15 -40 -55 0
-9 -15 -40 -63 0
-9 -15 -45 -55 0
-9 -15 -45 -63 0
-9 -15 -55 -63 0
-9 -28 -35 -40 0
-9 -28 -35 -45 0
-9 -28 -35 -55 0
-9 -28 -35 -63 0
-9 -28 -40 -45 0
-9 -28 -40 -55 0
-9 -28 -40 -63 0
-9 -28 -45 -55 0
-9 -28 -45 -63 0
-9 -28 -55 -63 0
-9 -35 -40 -45 0
-9 -35 -40 -55 0
-9 -35 -40 -63 0
-9 -35 -45 -55 0
-9 -35 -45 -63 0
-9 -35 -55 -63 0
-9 -40 -45 -55 0
-9 -40 -45 -63 0
-9 -40 -55 -63 0
-9 -45 -55 -63 0
-15 -28 -35 -40 0
-15 -28 -35 -45 0
-15 -28 -35 -55 0
-15 -28 -35 -63 0
-15 -28 -40 -45 0
-15 -28 -40 -55 0
-15 -28 -40 -63 0
-15 -28 -45 -55 0
-15 -28 -45 -63 0
-15 -28 -55 -63 0
-15 -35 -40 -45 0
-15 -35 -40 -55 0
-15 -35 -40 -63 0
-15 -35 -45 -55 0
-15 -35 -45 -63 0
-15 -35 -55 -63 0
-15 -40 -45 -55 0
-15 -40 -45 -63 0
-15 -40 -55 -63 0
-15 -45 -55 -63 0
-28 -35 -40 -45 0
-28 -35 -40 -55 0
-28 -35 -40 -63 0
-28 -35 -45 -55 0
-28 -35 -45 -63 0
-28 -35 -55 -63 0
-28 -40 -45 -55 0
-28 -40 -45 -63 0
-28 -40 -55 -63 0
-28 -45 -55 -63 0
-35 -40 -45 -55 0
-35 -40 -45 -63 0
-35 -40 -55 -63 0
-35 -45 -55 -63 0
-40 -45 -55 -63 0
-2 -13 -17 -22 0
-2 -13 -17 -31 0
-2 -13 -17 -36 0
-2 -13 -17 -48 0
-2 -13 -17 -55 0
-2 -13 -17 -59 0
-2 -13 -22 -31 0
-2 -13 -22 -36 0
-2 -13 -22 -48 0
-2 -13 -22 -55 0
-2 -13 -22 -59 0
-2 -13 -31 -36 0
-2 -13 -31 -48 0
-2 -13 -31 -55 0
-2 -13 -31 -59 0
-2 -13 -36 -48 0
-2 -13 -36 -55 0
-2 -13 -36 -59 0
-2 -13 -48 -55 0
-2 -13 -48 -59 0
-2 -13 -55 -59 0
-2 -17 -22 -31 0
-2 -17 -22 -36 0
-2 -17 -22 -48 0
-2 -17 -22 -55 0
-2 -17 -22 -59 0
-2 -17 -31 -36 0
-2 -17 -31 -48 0
-2 -17 -31 -55 0
-2 -17 -31 -59 0
-2 -17 -36 -48 0
-2 -17 -36 -55 0
-2 -17 -36 -59 0
-2 -17 -48 -55 0
-2 -17 -48 -59 0
-2 -17 -55 -59 0
-2 -22 -31 -36 0
-2 -22 -31 -48 0
-2 -22 -31 -55 0
-2 -22 -31 -59 0
-2 -22 -36 -48 0
-2 -22 -36 -55 0
-2 -22 -36 -59 0
-2 -22 -48 -55 0
-2 -22 -48 -59 0
-2 -22 -55 -59 0
-2 -31 -36 -48 0
-2 -31 -36 -55 0
-2 -31 -36 -59 0
-2 -31 -48 -55 0
-2 -31 -48 -59 0
-2 -31 -55 -59 0
-2 -36 -48 -55 0
-2 -36 -48 -59 0
-2 -36 -55 -59 0
-2 -48 -55 -59 0
-13 -17 -22 -31 0
-13 -17 -22 -36 0
-13 -17 -22 -48 0
-13 -17 -22 -55 0
-13 -17 -22 -59 0
-13 -17 -31 -36 0
-13 -17 -31 -48 0
-13 -17 -31 -55 0
-13 -17 -31 -59 0
-13 -17 -36 -48 0
-13 -17 -36 -55 0
-13 -17 -36 -59 0
-13 -17 -48 -55 0
-13 -17 -48 -59 0
-13 -17 -55 -59 0
-13 -22 -31 -36 0
-13 -22 -31 -48 0
-13 -22 -31 -55 0
-13 -22 -31 -59 0
-13 -22 -36 -48 0
-13 -22 -36 -55 0
-13 -22 -36 -59 0
-13 -22 -48 -55 0
-13 -22 -48 -59 0
-13 -22 -55 -59 0
-13 -31 -36 -48 0
-13 -31 -36 -55 0
-13 -31 -36 -59 0
-13 -31 -48 -55 0
-13 -31 -48 -59 0
-13 -31 -55 -59 0
-13 -36 -48 -55 0
-13 -36 -48 -59 0
-13 -36 -55 -59 0
-13 -48 -55 -59 0
-17 -22 -31 -36 0
-17 -22 -31 -48 0
-17 -22 -31 -55 0
-17 -22 -31 -59 0
-17 -22 -36 -48 0
-17 -22 -36 -55 0
-17 -22 -36 -59 0
-17 -22 -48 -55 0
-17 -22 -48 -59 0
-17 -22 -55 -59 0
-17 -31 -36 -48 0
-17 -31 -36 -55 0
-17 -31 -36 -59 0
-17 -31 -48 -55 0
-17 -31 -48 -59 0
-17 -31 -55 -59 0
-17 -36 -48 -55 0
-17 -36 -48 -59 0
-17 -36 -55 -59 0
-17 -48 -55 -59 0
-22 -31 -36 -48 0
-22 -31 -36 -55 0
-22 -31 -36 -59 0
-22 -31 -48 -55 0
-22 -31 -48 -59 0
-22 -31 -55 -59 0
-22 -36 -48 -55 0
-22 -36 -48 -59 0
-22 -36 -55 -59 0
-22 -48 -55 -59 0
-31 -36 -48 -55 0
-31 -36 -48 -59 0
-31 -36 -55 -59 0
-31 -48 -55 -59 0
-36 -48 -55 -59 0
-1 -8 -19 -24 0
-1 -8 -19 -35 0
-1 -8 -19 -38 0
-1 -8 -19 -44 0
-1 -8 -19 -55 0
-1 -8 -19 -61 0
-1 -8 -24 -35 0
-1 -8 -24 -38 0
-1 -8 -24 -44 0
-1 -8 -24 -55 0
-1 -8 -24 -61 0
-1 -8 -35 -38 0
-1 -8 -35 -44 0
-1 -8 -35 -55 0
-1 -8 -35 -61 0
-1 -8 -38 -44 0
-1 -8 -38 -55 0
-1 -8 -38 -61 0
-1 -8 -44 -55 0
-1 -8 -44 -61 0
-1 -8 -55 -61 0
-1 -19 -24 -35 0
-1 -19 -24 -38 0
-1 -19 -24 -44 0
-1 -19 -24 -55 0
-1 -19 -24 -61 0
-1 -19 -35 -38 0
-1 -19 -35 -44 0
-1 -19 -35 -55 0
-1 -19 -35 -61 0
-1 -19 -38 -44 0
-1 -19 -38 -55 0
-1 -19 -38 -61 0
-1 -19 -44 -55 0
-1 -19 -44 -61 0
-1 -19 -55 -61 0
-1 -24 -35 -38 0
-1 -24 -35 -44 0
-1 -24 -35 -55 0
-1 -24 -35 -61 0
-1 -24 -38 -44 0
-1 -24 -38 -55 0
-1 -24 -38 -61 0
-1 -24 -44 -55 0
-1 -24 -44 -61 0
-1 -24 -55 -61 0
-1 -35 -38 -44 0
-1 -35 -38 -55 0
-1 -35 -38 -61 0
-1 -35 -44 -55 0
-1 -35 -44 -61 0
-1 -35 -55 -61 0
-1 -38 -44 -55 0
-1 -38 -44 -61 0
-1 -38 -55 -61 0
-1 -44 -55 -61 0
-8 -19 -24 -35 0
-8 -19 -24 -38 0
-8 -19 -24 -44 0
-8 -19 -24 -55 0
-8 -19 -24 -61 0
-8 -19 -35 -38 0
-8 -19 -35 -44 0
-8 -19 -35 -55 0
-8 -19 -35 -61 0
-8 -19 -38 -44 0
-8 -19 -38 -55 0
-8 -19 -38 -61 0
-8 -19 -44 -55 0
-8 -19 -44 -61 0
-8 -19 -55 -61 0
-8 -24 -35 -38 0
-8 -24 -35 -44 0
-8 -24 -35 -55 0
-8 -24 -35 -61 0
-8 -24 -38 -44 0
-8 -24 -38 -55 0
-8 -24 -38 -61 0
-8 -24 -44 -55 0
-8 -24 -44 -61 0
-8 -24 -55 -61 0
-8 -35 -38 -44 0
-8 -35 -38 -55 0
-8 -35 -38 -61 0
-8 -35 -44 -55 0
-8 -35 -44 -61 0
-8 -35 -55 -61 0
-8 -38 -44 -55 0
-8 -38 -44 -61 0
-8 -38 -55 -61 0
-8 -44 -55 -61 0
-19 -24 -35 -38 0
-19 -24 -35 -44 0
-19 -24 -35 -55 0
-19 -24 -35 -61 0
-19 -24 -38 -44 0
-19 -24 -38 -55 0
-19 -24 -38 -61 0
-19 -24 -44 -55 0
-19 -24 -44 -61 0
-19 -24 -55 -61 0
-19 -35 -38 -44 0
-19 -35 -38 -55 0
-19 -35 -38 -61 0
-19 -35 -44 -55 0
-19 -35 -44 -61 0
-19 -35 -55 -61 0
-19 -38 -44 -55 0
-19 -38 -44 -61 0
-19 -38 -55 -61 0
-19 -44 -55 -61 0
-24 -35 -38 -44 0
-24 -35 -38 -55 0
-24 -35 -38 -61 0
-24 -35 -44 -55 0
-24 -35 -44 -61 0
-24 -35 -55 -61 0
-24 -38 -44 -55 0
-24 -38 -44 -61 0
-24 -38 -55 -61 0
-24 -44 -55 -61 0
-35 -38 -44 -55 0
-35 -38 -44 -61 0
-35 -38 -55 -61 0
-35 -44 -55 -61 0
-38 -44 -55 -61 0
-6 -11 -17 -25 0
-6 -11 -17 -29 0
-6 -11 -17 -41 0
-6 -11 -17 -45 0
-6 -11 -17 -50 0
-6 -11 -17 -60 0
-6 -11 -25 -29 0
-6 -11 -25 -41 0
-6 -11 -25 -45 0
-6 -11 -25 -50 0
-6 -11 -25 -60 0
-6 -11 -29 -41 0
-6 -11 -29 -45 0
-6 -11 -29 -50 0
-6 -11 -29 -60 0
-6 -11 -41 -45 0
-6 -11 -41 -50 0
-6 -11 -41 -60 0
-6 -11 -45 -50 0
-6 -11 -45 -60 0
-6 -11 -50 -60 0
-6 -17 -25 -29 0
-6 -17 -25 -41 0
-6 -17 -25 -45 0
-6 -17 -25 -50 0
-6 -17 -25 -60 0
-6 -17 -29 -41 0
-6 -17 -29 -45 0
-6 -17 -29 -50 0
-6 -17 -29 -60 0
-6 -17 -41 -45 0
-6 -17 -41 -50 0
-6 -17 -41 -60 0
-6 -17 -45 -50 0
-6 -17 -45 -60 0
-6 -17 -50 -60 0
-6 -25 -29 -41 0
-6 -25 -29 -45 0
-6 -25 -29 -50 0
-6 -25 -29 -60 0
-6 -25 -41 -45 0
-6 -25 -41 -50 0
-6 -25 -41 -60 0
-6 -25 -45 -50 0
-6 -25 -45 -60 0
-6 -25 -50 -60 0
-6 -29 -41 -45 0
-6 -29 -41 -50 0
-6 -29 -41 -60 0
-6 -29 -45 -50 0
-6 -29 -45 -60 0
-6 -29 -50 -60 0
-6 -41 -45 -50 0
-6 -41 -45 -60 0
-6 -41 -50 -60 0
-6 -45 -50 -60 0
-11 -17 -25 -29 0
-11 -17 -25 -41 0
-11 -17 -25 -45 0
-11 -17 -25 -50 0
-11 -17 -25 -60 0
-11 -17 -29 -41 0
-11 -17 -29 -45 0
-11 -17 -29 -50 0
-11 -17 -29 -60 0
-11 -17 -41 -45 0
-11 -17 -41 -50 0
-11 -17 -41 -60 0
-11 -17 -45 -50 0
-11 -17 -45 -60 0
-11 -17 -50 -60 0
-11 -25 -29 -41 0
-11 -25 -29 -45 0
-11 -25 -29 -50 0
-11 -25 -29 -60 0
-11 -25 -41 -45 0
-11 -25 -41 -50 0
-11 -25 -41 -60 0
-11 -25 -45 -50 0
-11 -25 -45 -60 0
-11 -25 -50 -60 0
-11 -29 -41 -45 0
-11 -29 -41 -50 0
-11 -29 -41 -60 0
-11 -29 -45 -50 0
-11 -29 -45 -60 0
-11 -29 -50 -60 0
-11 -41 -45 -50 0
-11 -41 -45 -60 0
-11 -41 -50 -60 0
-11 -45 -50 -60 0
-17 -25 -29 -41 0
-17 -25 -29 -45 0
-17 -25 -29 -50 0
-17 -25 -29 -60 0
-17 -25 -41 -45 0
-17 -25 -41 -50 0
-17 -25 -41 -60 0
-17 -25 -45 -50 0
-17 -25 -45 -60 0
-17 -25 -50 -60 0
-17 -29 -41 -45 0
-17 -29 -41 -50 0
-17 -29 -41 -60 0
-17 -29 -45 -50 0
-17 -29 -45 -60 0
-17 -29 -50 -60 0
-17 -41 -45 -50 0
-17 -41 -45 -60 0
-17 -41 -50 -60 0
-17 -45 -50 -60 0
-25 -29 -41 -45 0
-25 -29 -41 -50 0
-25 -29 -41 -60 0
-25 -29 -45 -50 0
-25 -29 -45 -60 0
-25 -29 -50 -60 0
-25 -41 -45 -50 0
-25 -41 -45 -60 0
-25 -41 -50 -60 0
-25 -45 -50 -60 0
-29 -41 -45 -50 0
-29 -41 -45 -60 0
-29 -41 -50 -60 0
-29 -45 -50 -60 0
-41 -45 -50 -60 0
-6 -13 -21 -26 0
-6 -13 -21 -31 0
-6 -13 -21 -42 0
-6 -13 -21 -45 0
-6 -13 -21 -55 0
-6 -13 -21 -57 0
-6 -13 -26 -31 0
-6 -13 -26 -42 0
-6 -13 -26 -45 0
-6 -13 -26 -55 0
-6 -13 -26 -57 0
-6 -13 -31 -42 0
-6 -13 -31 -45 0
-6 -13 -31 -55 0
-6 -13 -31 -57 0
-6 -13 -42 -45 0
-6 -13 -42 -55 0
-6 -13 -42 -57 0
-6 -13 -45 -55 0
-6 -13 -45 -57 0
-6 -13 -55 -57 0
-6 -21 -26 -31 0
-6 -21 -26 -42 0
-6 -21 -26 -45 0
-6 -21 -26 -55 0
-6 -21 -26 -57 0
-6 -21 -31 -42 0
-6 -21 -31 -45 0
-6 -21 -31 -55 0
-6 -21 -31 -57 0
-6 -21 -42 -45 0
-6 -21 -42 -55 0
-6 -21 -42 -57 0
-6 -21 -45 -55 0
-6 -21 -45 -57 0
-6 -21 -55 -57 0
-6 -26 -31 -42 0
-6 -26 -31 -45 0
-6 -26 -31 -55 0
-6 -26 -31 -57 0
-6 -26 -42 -45 0
-6 -26 -42 -55 0
-6 -26 -42 -57 0
-6 -26 -45 -55 0
-6 -26 -45 -57 0
-6 -26 -55 -57 0
-6 -31 -42 -45 0
-6 -31 -42 -55 0
-6 -31 -42 -57 0
-6 -31 -45 -55 0
-6 -31 -45 -57 0
-6 -31 -55 -57 0
-6 -42 -45 -55 0
-6 -42 -45 -57 0
-6 -42 -55 -57 0
-6 -45 -55 -57 0
-13 -21 -26 -31 0
-13 -21 -26 -42 0
-13 -21 -26 -45 0
-13 -21 -26 -55 0
-13 -21 -26 -57 0
-13 -21 -31 -42 0
-13 -21 -31 -45 0
-13 -21 -31 -55 0
-13 -21 -31 -57 0
-13 -21 -42 -45 0
-13 -21 -42 -55 0
-13 -21 -42 -57 0
-13 -21 -45 -55 0
-13 -21 -45 -57 0
-13 -21 -55 -57 0
-13 -26 -31 -42 0
-13 -26 -31 -45 0
-13 -26 -31 -55 0
-13 -26 -31 -57 0
-13 -26 -42 -45 0
-13 -26 -42 -55 0
-13 -26 -42 -57 0
-13 -26 -45 -55 0
-13 -26 -45 -57 0
-13 -26 -55 -57 0
-13 -31 -42 -45 0
-13 -31 -42 -55 0
-13 -31 -42 -57 0
-13 -31 -45 -55 0
-13 -31 -45 -57 0
-13 -31 -55 -57 0
-13 -42 -45 -55 0
-13 -42 -45 -57 0
-13 -42 -55 -57 0
-13 -45 -55 -57 0
-21 -26 -31 -42 0
-21 -26 -31 -45 0
-21 -26 -31 -55 0
-21 -26 -31 -57 0
-21 -26 -42 -45 0
-21 -26 -42 -55 0
-21 -26 -42 -57 0
-21 -26 -45 -55 0
-21 -26 -45 -57 0
-21 -26 -55 -57 0
-21 -31 -42 -45 0
-21 -31 -42 -55 0
-21 -31 -42 -57 0
-21 -31 -45 -55 0
-21 -31 -45 -57 0
-21 -31 -55 -57 0
-21 -42 -45 -55 0
-21 -42 -45 -57 0
-21 -42 -55 -57 0
-21 -45 -55 -57 0
-26 -31 -42 -45 0
-26 -31 -42 -55 0
-26 -31 -42 -57 0
-26 -31 -45 -55 0
-26 -31 -45 -57 0
-26 -31 -55 -57 0
-26 -42 -45 -55 0
-26 -42 -45 -57 0
-26 -42 -55 -57 0
-26 -45 -55 -57 0
-31 -42 -45 -55 0
-31 -42 -45 -57 0
-31 -42 -55 -57 0
-31 -45 -55 -57 0
-42 -45 -55 -57 0
-4 -8 -15 -23 0
-4 -8 -15 -33 0
-4 -8 -15 -36 0
-4 -8 -15 -46 0
-4 -8 -15 -52 0
-4 -8 -15 -62 0
-4 -8 -23 -33 0
-4 -8 -23 -36 0
-4 -8 -23 -46 0
-4 -8 -23 -52 0
-4 -8 -23 -62 0
-4 -8 -33 -36 0
-4 -8 -33 -46 0
-4 -8 -33 -52 0
-4 -8 -33 -62 0
-4 -8 -36 -46 0
-4 -8 -36 -52 0
-4 -8 -36 -62 0
-4 -8 -46 -52 0
-4 -8 -46 -62 0
-4 -8 -52 -62 0
-4 -15 -23 -33 0
-4 -15 -23 -36 0
-4 -15 -23 -46 0
-4 -15 -23 -52 0
-4 -15 -23 -62 0
-4 -15 -33 -36 0
-4 -15 -33 -46 0
-4 -15 -33 -52 0
-4 -15 -33 -62 0
-4 -15 -36 -46 0
-4 -15 -36 -52 0
-4 -15 -36 -62 0
-4 -15 -46 -52 0
-4 -15 -46 -62 0
-4 -15 -52 -62 0
-4 -23 -33 -36 0
-4 -23 -33 -46 0
-4 -23 -33 -52 0
-4 -23 -33 -62 0
-4 -23 -36 -46 0
-4 -23 -36 -52 0
-4 -23 -36 -62 0
-4 -23 -46 -52 0
-4 -23 -46 -62 0
-4 -23 -52 -62 0
-4 -33 -36 -46 0
-4 -33 -36 -52 0
-4 -33 -36 -62 0
-4 -33 -46 -52 0
-4 -33 -46 -62 0
-4 -33 -52 -62 0
-4 -36 -46 -52 0
-4 -36 -46 -62 0
-4 -36 -52 -62 0
-4 -46 -52 -62 0
-8 -15 -23 -33 0
-8 -15 -23 -36 0
-8 -15 -23 -46 0
-8 -15 -23 -52 0
-8 -15 -23 -62 0
-8 -15 -33 -36 0
-8 -15 -33 -46 0
-8 -15 -33 -52 0
-8 -15 -33 -62 0
-8 -15 -36 -46 0
-8 -15 -36 -52 0
-8 -15 -36 -62 0
-8 -15 -46 -52 0
-8 -15 -46 -62 0
-8 -15 -52 -62 0
-8 -23 -33 -36 0
-8 -23 -33 -46 0
-8 -23 -33 -52 0
-8 -23 -33 -62 0
-8 -23 -36 -46 0
-8 -23 -36 -52 0
-8 -23 -36 -62 0
-8 -23 -46 -52 0
-8 -23 -46 -62 0
-8 -23 -52 -62 0
-8 -33 -36 -46 0
-8 -33 -36 -52 0
-8 -33 -36 -62 0
-8 -33 -46 -52 0
-8 -33 -46 -62 0
-8 -33 -52 -62 0
-8 -36 -46 -52 0
-8 -36 -46 -62 0
-8 -36 -52 -62 0
-8 -46 -52 -62 0
-15 -23 -33 -36 0
-15 -23 -33 -46 0
-15 -23 -33 -52 0
-15 -23 -33 -62 0
-15 -23 -36 -46 0
-15 -23 -36 -52 0
-15 -23 -36 -62 0
-15 -23 -46 -52 0
-15 -23 -46 -62 0
-15 -23 -52 -62 0
-15 -33 -36 -46 0
-15 -33 -36 -52 0
-15 -33 -36 -62 0
-15 -33 -46 -52 0
-15 -33 -46 -62 0
-15 -33 -52 -62 0
-15 -36 -46 -52 0
-15 -36 -46 -62 0
-15 -36 -52 -62 0
-15 -46 -52 -62 0
-23 -33 -36 -46 0
-23 -33 -36 -52 0
-23 -33 -36 -62 0
-23 -33 -46 -52 0
-23 -33 -46 -62 0
-23 -33 -52 -62 0
-23 -36 -46 -52 0
-23 -36 -46 -62 0
-23 -36 -52 -62 0
-23 -46 -52 -62 0
-33 -36 -46 -52 0
-33 -36 -46 -62 0
-33 -36 -52 -62 0
-33 -46 -52 -62 0
-36 -46 -52 -62 0
-6 -13 -17 -26 0
-6 -13 -17 -35 0
-6 -13 -17 -40 0
-6 -13 -17 -49 0
-6 -13 -17 -56 0
-6 -13 -17 -59 0
-6 -13 -26 -35 0
-6 -13 -26 -40 0
-6 -13 -26 -49 0
-6 -13 -26 -56 0
-6 -13 -26 -59 0
-6 -13 -35 -40 0
-6 -13 -35 -49 0
-6 -13 -35 -56 0
-6 -13 -35 -59 0
-6 -13 -40 -49 0
-6 -13 -40 -56 0
-6 -13 -40 -59 0
-6 -13 -49 -56 0
-6 -13 -49 -59 0
-6 -13 -56 -59 0
-6 -17 -26 -35 0
-6 -17 -26 -40 0
-6 -17 -26 -49 0
-6 -17 -26 -56 0
-6 -17 -26 -59 0
-6 -17 -35 -40 0
-6 -17 -35 -49 0
-6 -17 -35 -56 0
-6 -17 -35 -59 0
-6 -17 -40 -49 0
-6 -17 -40 -56 0
-6 -17 -40 -59 0
-6 -17 -49 -56 0
-6 -17 -49 -59 0
-6 -17 -56 -59 0
-6 -26 -35 -40 0
-6 -26 -35 -49 0
-6 -26 -35 -56 0
-6 -26 -35 -59 0
-6 -26 -40 -49 0
-6 -26 -40 -56 0
-6 -26 -40 -59 0
-6 -26 -49 -56 0
-6 -26 -49 -59 0
-6 -26 -56 -59 0
-6 -35 -40 -49 0
-6 -35 -40 -56 0
-6 -35 -40 -59 0
-6 -35 -49 -56 0
-6 -35 -49 -59 0
-6 -35 -56 -59 0
-6 -40 -49 -56 0
-6 -40 -49 -59 0
-6 -40 -56 -59 0
-6 -49 -56 -59 0
-13 -17 -26 -35 0
-13 -17 -26 -40 0
-13 -17 -26 -49 0
-13 -17 -26 -56 0
-13 -17 -26 -59 0
-13 -17 -35 -40 0
-13 -17 -35 -49 0
-13 -17 -35 -56 0
-13 -17 -35 -59 0
-13 -17 -40 -49 0
-13 -17 -40 -56 0
-13 -17 -40 -59 0
-13 -17 -49 -56 0
-13 -17 -49 -59 0
-13 -17 -56 -59 0
-13 -26 -35 -40 0
-13 -26 -35 -49 0
-13 -26 -35 -56 0
-13 -26 -35 -59 0
-13 -26 -40 -49 0
-13 -26 -40 -56 0
-13 -26 -40 -59 0
-13 -26 -49 -56 0
-13 -26 -49 -59 0
-13 -26 -56 -59 0
-13 -35 -40 -49 0
-13 -35 -40 -56 0
-13 -35 -40 -59 0
-13 -35 -49 -56 0
-13 -35 -49 -59 0
-13 -35 -56 -59 0
-13 -40 -49 -56 0
-13 -40 -49 -59 0
-13 -40 -56 -59 0
-13 -49 -56 -59 0
-17 -26 -35 -40 0
-17 -26 -35 -49 0
-17 -26 -35 -56 0
-17 -26 -35 -59 0
-17 -26 -40 -49 0
-17 -26 -40 -56 0
-17 -26 -40 -59 0
-17 -26 -49 -56 0
-17 -26 -49 -59 0
-17 -26 -56 -59 0
-17 -35 -40 -49 0
-17 -35 -40 -56 0
-17 -35 -40 -59 0
-17 -35 -49 -56 0
-17 -35 -49 -59 0
-17 -35 -56 -59 0
-17 -40 -49 -56 0
-17 -40 -49 -59 0
-17 -40 -56 -59 0
-17 -49 -56 -59 0
-26 -35 -40 -49 0
-26 -35 -40 -56 0
-26 -35 -40 -59 0
-26 -35 -49 -56 0
-26 -35 -49 -59 0
-26 -35 -56 -59 0
-26 -40 -49 -56 0
-26 -40 -49 -59 0
-26 -40 -56 -59 0
-26 -49 -56 -59 0
-35 -40 -49 -56 0
-35 -40 -49 -59 0
-35 -40 -56 -59 0
-35 -49 -56 -59 0
-40 -49 -56 -59 0
-1 -10 -18 -22 0
-1 -10 -18 -35 0
-1 -10 -18 -39 0
-1 -10 -18 -49 0
-1 -10 -18 -51 0
-1 -10 -18 -61 0
-1 -10 -22 -35 0
-1 -10 -22 -39 0
-1 -10 -22 -49 0
-1 -10 -22 -51 0
-1 -10 -22 -61 0
-1 -10 -35 -39 0
-1 -10 -35 -49 0
-1 -10 -35 -51 0
-1 -10 -35 -61 0
-1 -10 -39 -49 0
-1 -10 -39 -51 0
-1 -10 -39 -61 0
-1 -10 -49 -51 0
-1 -10 -49 -61 0
-1 -10 -51 -61 0
-1 -18 -22 -35 0
-1 -18 -22 -39 0
-1 -18 -22 -49 0
-1 -18 -22 -51 0
-1 -18 -22 -61 0
-1 -18 -35 -39 0
-1 -18 -35 -49 0
-1 -18 -35 -51 0
-1 -18 -35 -61 0
-1 -18 -39 -49 0
-1 -18 -39 -51 0
-1 -18 -39 -61 0
-1 -18 -49 -51 0
-1 -18 -49 -61 0
-1 -18 -51 -61 0
-1 -22 -35 -39 0
-1 -22 -35 -49 0
-1 -22 -35 -51 0
-1 -22 -35 -61 0
-1 -22 -39 -49 0
-1 -22 -39 -51 0
-1 -22 -39 -61 0
-1 -22 -49 -51 0
-1 -22 -49 -61 0
-1 -22 -51 -61 0
-1 -35 -39 -49 0
-1 -35 -39 -51 0
-1 -35 -39 -61 0
-1 -35 -49 -51 0
-1 -35 -49 -61 0
-1 -35 -51 -61 0
-1 -39 -49 -51 0
-1 -39 -49 -61 0
-1 -39 -51 -61 0
-1 -49 -51 -61 0
-10 -18 -22 -35 0
-10 -18 -22 -39 0
-10 -18 -22 -49 0
-10 -18 -22 -51 0
-10 -18 -22 -61 0
-10 -18 -35 -39 0
-10 -18 -35 -49 0
-10 -18 -35 -51 0
-10 -18 -35 -61 0
-10 -18 -39 -49 0
-10 -18 -39 -51 0
-10 -18 -39 -61 0
-10 -18 -49 -51 0
-10 -18 -49 -61 0
-10 -18 -51 -61 0
-10 -22 -35 -39 0
-10 -22 -35 -49 0
-10 -22 -35 -51 0
-10 -22 -35 -61 0
-10 -22 -39 -49 0
-10 -22 -39 -51 0
-10 -22 -39 -61 0
-10 -22 -49 -51 0
-10 -22 -49 -61 0
-10 -22 -51 -61 0
-10 -35 -39 -49 0
-10 -35 -39 -51 0
-10 -35 -39 -61 0
-10 -35 -49 -51 0
-10 -35 -49 -61 0
-10 -35 -51 -61 0
-10 -39 -49 -51 0
-10 -39 -49 -61 0
-10 -39 -51 -61 0
-10 -49 -51 -61 0
-18 -22 -35 -39 0
-18 -22 -35 -49 0
-18 -22 -35 -51 0
-18 -22 -35 -61 0
-18 -22 -39 -49 0
-18 -22 -39 -51 0
-18 -22 -39 -61 0
-18 -22 -49 -51 0
-18 -22 -49 -61 0
-18 -22 -51 -61 0
-18 -35 -39 -49 0
-18 -35 -39 -51 0
-18 -35 -39 -61 0
-18 -35 -49 -51 0
-18 -35 -49 -61 0
-18 -35 -51 -61 0
-18 -39 -49 -51 0
-18 -39 -49 -61 0
-18 -39 -51 -61 0
-18 -49 -51 -61 0
-22 -35 -39 -49 0
-22 -35 -39 -51 0
-22 -35 -39 -61 0
-22 -35 -49 -51 0
-22 -35 -49 -61 0
-22 -35 -51 -61 0
-22 -39 -49 -51 0
-22 -39 -49 -61 0
-22 -39 -51 -61 0
-22 -49 -51 -61 0
-35 -39 -49 -51 0
-35 -39 -49 -61 0
-35 -39 -51 -61 0
-35 -49 -51 -61 0
-39 -49 -51 -61 0
-6 -8 -17 -27 0
-6 -8 -17 -33 0
-6 -8 -17 -39 0
-6 -8 -17 -48 0
-6 -8 -17 -53 0
-6 -8 -17 -63 0
-6 -8 -27 -33 0
-6 -8 -27 -39 0
-6 -8 -27 -48 0
-6 -8 -27 -53 0
-6 -8 -27 -63 0
-6 -8 -33 -39 0
-6 -8 -33 -48 0
-6 -8 -33 -53 0
-6 -8 -33 -63 0
-6 -8 -39 -48 0
-6 -8 -39 -53 0
-6 -8 -39 -63 0
-6 -8 -48 -53 0
-6 -8 -48 -63 0
-6 -8 -53 -63 0
-6 -17 -27 -33 0
-6 -17 -27 -39 0
-6 -17 -27 -48 0
-6 -17 -27 -53 0
-6 -17 -27 -63 0
-6 -17 -33 -39 0
-6 -17 -33 -48 0
-6 -17 -33 -53 0
-6 -17 -33 -63 0
-6 -17 -39 -48 0
-6 -17 -39 -53 0
-6 -17 -39 -63 0
-6 -17 -48 -53 0
-6 -17 -48 -63 0
-6 -17 -53 -63 0
-6 -27 -33 -39 0
-6 -27 -33 -48 0
-6 -27 -33 -53 0
-6 -27 -33 -63 0
-6 -27 -39 -48 0
-6 -27 -39 -53 0
-6 -27 -39 -63 0
-6 -27 -48 -53 0
-6 -27 -48 -63 0
-6 -27 -53 -63 0
-6 -33 -39 -48 0
-6 -33 -39 -53 0
-6 -33 -39 -63 0
-6 -33 -48 -53 0
-6 -33 -48 -63 0
-6 -33 -53 -63 0
-6 -39 -48 -53 0
-6 -39 -48 -63 0
-6 -39 -53 -63 0
-6 -48 -53 -63 0
-8 -17 -27 -33 0
-8 -17 -27 -39 0
-8 -17 -27 -48 0
-8 -17 -27 -53 0
-8 -17 -27 -63 0
-8 -17 -33 -39 0
-8 -17 -33 -48 0
-8 -17 -33 -53 0
-8 -17 -33 -63 0
-8 -17 -39 -48 0
-8 -17 -39 -53 0
-8 -17 -39 -63 0
-8 -17 -48 -53 0
-8 -17 -48 -63 0
-8 -17 -53 -63 0
-8 -27 -33 -39 0
-8 -27 -33 -48 0
-8 -27 -33 -53 0
-8 -27 -33 -63 0
-8 -27 -39 -48 0
-8 -27 -39 -53 0
-8 -27 -39 -63 0
-8 -27 -48 -53 0
-8 -27 -48 -63 0
-8 -27 -53 -63 0
-8 -33 -39 -48 0
-8 -33 -39 -53 0
-8 -33 -39 -63 0
-8 -33 -48 -53 0
-8 -33 -48 -63 0
-8 -33 -53 -63 0
-8 -39 -48 -53 0
-8 -39 -48 -63 0
-8 -39 -53 -63 0
-8 -48 -53 -63 0
-17 -27 -33 -39 0
-17 -27 -33 -48 0
-17 -27 -33 -53 0
-17 -27 -33 -63 0
-17 -27 -39 -48 0
-17 -27 -39 -53 0
-17 -27 -39 -63 0
-17 -27 -48 -53 0
-17 -27 -48 -63 0
-17 -27 -53 -63 0
-17 -33 -39 -48 0
-17 -33 -39 -53 0
-17 -33 -39 -63 0
-17 -33 -48 -53 0
-17 -33 -48 -63 0
-17 -33 -53 -63 0
-17 -39 -48 -53 0
-17 -39 -48 -63 0
-17 -39 -53 -63 0
-17 -48 -53 -63 0
-27 -33 -39 -48 0
-27 -33 -39 -53 0
-27 -33 -39 -63 0
-27 -33 -48 -53 0
-27 -33 -48 -63 0
-27 -33 -53 -63 0
-27 -39 -48 -53 0
-27 -39 -48 -63 0
-27 -39 -53 -63 0
-27 -48 -53 -63 0
-33 -39 -48 -53 0
-33 -39 -48 -63 0
-33 -39 -53 -63 0
-33 -48 -53 -63 0
-39 -48 -53 -63 0
-2 -13 -18 -24 0
-2 -13 -18 -30 0
-2 -13 -18 -38 0
-2 -13 -18 -43 0
-2 -13 -18 -51 0
-2 -13 -18 -58 0
-2 -13 -24 -30 0
-2 -13 -24 -38 0
-2 -13 -24 -43 0
-2 -13 -24 -51 0
-2 -13 -24 -58 0
-2 -13 -30 -38 0
-2 -13 -30 -43 0
-2 -13 -30 -51 0
-2 -13 -30 -58 0
-2 -13 -38 -43 0
-2 -13 -38 -51 0
-2 -13 -38 -58 0
-2 -13 -43 -51 0
-2 -13 -43 -58 0
-2 -13 -51 -58 0
-2 -18 -24 -30 0
-2 -18 -24 -38 0
-2 -18 -24 -43 0
-2 -18 -24 -51 0
-2 -18 -24 -58 0
-2 -18 -30 -38 0
-2 -18 -30 -43 0
-2 -18 -30 -51 0
-2 -18 -30 -58 0
-2 -18 -38 -43 0
-2 -18 -38 -51 0
-2 -18 -38 -58 0
-2 -18 -43 -51 0
-2 -18 -43 -58 0
-2 -18 -51 -58 0
-2 -24 -30 -38 0
-2 -24 -30 -43 0
-2 -24 -30 -51 0
-2 -24 -30 -58 0
-2 -24 -38 -43 0
-2 -24 -38 -51 0
-2 -24 -38 -58 0
-2 -24 -43 -51 0
-2 -24 -43 -58 0
-2 -24 -51 -58 0
-2 -30 -38 -43 0
-2 -30 -38 -51 0
-2 -30 -38 -58 0
-2 -30 -43 -51 0
-2 -30 -43 -58 0
-2 -30 -51 -58 0
-2 -38 -43 -51 0
-2 -38 -43 -58 0
-2 -38 -51 -58 0
-2 -43 -51 -58 0
-13 -18 -24 -30 0
-13 -18 -24 -38 0
-13 -18 -24 -43 0
-13 -18 -24 -51 0
-13 -18 -24 -58 0
-13 -18 -30 -38 0
-13 -18 -30 -43 0
-13 -18 -30 -51 0
-13 -18 -30 -58 0
-13 -18 -38 -43 0
-13 -18 -38 -51 0
-13 -18 -38 -58 0
-13 -18 -43 -51 0
-13 -18 -43 -58 0
-13 -18 -51 -58 0
-13 -24 -30 -38 0
-13 -24 -30 -43 0
-13 -24 -30 -51 0
-13 -24 -30 -58 0
-13 -24 -38 -43 0
-13 -24 -38 -51 0
-13 -24 -38 -58 0
-13 -24 -43 -51 0
-13 -24 -43 -58 0
-13 -24 -51 -58 0
-13 -30 -38 -43 0
-13 -30 -38 -51 0
-13 -30 -38 -58 0
-13 -30 -43 -51 0
-13 -30 -43 -58 0
-13 -30 -51 -58 0
-13 -38 -43 -51 0
-13 -38 -43 -58 0
-13 -38 -51 -58 0
-13 -43 -51 -58 0
-18 -24 -30 -38 0
-18 -24 -30 -43 0
-18 -24 -30 -51 0
-18 -24 -30 -58 0
-18 -24 -38 -43 0
-18 -24 -38 -51 0
-18 -24 -38 -58 0
-18 -24 -43 -51 0
-18 -24 -43 -58 0
-18 -24 -51 -58 0
-18 -30 -38 -43 0
-18 -30 -38 -51 0
-18 -30 -38 -58 0
-18 -30 -43 -51 0
-18 -30 -43 -58 0
-18 -30 -51 -58 0
-18 -38 -43 -51 0
-18 -38 -43 -58 0
-18 -38 -51 -58 0
-18 -43 -51 -58 0
-24 -30 -38 -43 0
-24 -30 -38 -51 0
-24 -30 -38 -58 0
-24 -30 -43 -51 0
-24 -30 -43 -58 0
-24 -30 -51 -58 0
-24 -38 -43 -51 0
-24 -38 -43 -58 0
-24 -38 -51 -58 0
-24 -43 -51 -58 0
-30 -38 -43 -51 0
-30 -38 -43 -58 0
-30 -38 -51 -58 0
-30 -43 -51 -58 0
-38 -43 -51 -58 0
-2 -10 -16 -27 0
-2 -10 -16 -34 0
-2 -10 -16 -36 0
-2 -10 -16 -49 0
-2 -10 -16 -51 0
-2 -10 -16 -58 0
-2 -10 -27 -34 0
-2 -10 -27 -36 0
-2 -10 -27 -49 0
-2 -10 -27 -51 0
-2 -10 -27 -58 0
-2 -10 -34 -36 0
-2 -10 -34 -49 0
-2 -10 -34 -51 0
-2 -10 -34 -58 0
-2 -10 -36 -49 0
-2 -10 -36 -51 0
-2 -10 -36 -58 0
-2 -10 -49 -51 0
-2 -10 -49 -58 0
-2 -10 -51 -58 0
-2 -16 -27 -34 0
-2 -16 -27 -36 0
-2 -16 -27 -49 0
-2 -16 -27 -51 0
-2 -16 -27 -58 0
-2 -16 -34 -36 0
-2 -16 -34 -49 0
-2 -16 -34 -51 0
-2 -16 -34 -58 0
-2 -16 -36 -49 0
-2 -16 -36 -51 0
-2 -16 -36 -58 0
-2 -16 -49 -51 0
-2 -16 -49 -58 0
-2 -16 -51 -58 0
-2 -27 -34 -36 0
-2 -27 -34 -49 0
-2 -27 -34 -51 0
-2 -27 -34 -58 0
-2 -27 -36 -49 0
-2 -27 -36 -51 0
-2 -27 -36 -58 0
-2 -27 -49 -51 0
-2 -27 -49 -58 0
-2 -27 -51 -58 0
-2 -34 -36 -49 0
-2 -34 -36 -51 0
-2 -34 -36 -58 0
-2 -34 -49 -51 0
-2 -34 -49 -58 0
-2 -34 -51 -58 0
-2 -36 -49 -51 0
-2 -36 -49 -58 0
-2 -36 -51 -58 0
-2 -49 -51 -58 0
-10 -16 -27 -34 0
-10 -16 -27 -36 0
-10 -16 -27 -49 0
-10 -16 -27 -51 0
-10 -16 -27 -58 0
-10 -16 -34 -36 0
-10 -16 -34 -49 0
-10 -16 -34 -51 0
-10 -16 -34 -58 0
-10 -16 -36 -49 0
-10 -16 -36 -51 0
-10 -16 -36 -58 0
-10 -16 -49 -51 0
-10 -16 -49 -58 0
-10 -16 -51 -58 0
-10 -27 -34 -36 0
-10 -27 -34 -49 0
-10 -27 -34 -51 0
-10 -27 -34 -58 0
-10 -27 -36 -49 0
-10 -27 -36 -51 0
-10 -27 -36 -58 0
-10 -27 -49 -51 0
-10 -27 -49 -58 0
-10 -27 -51 -58 0
-10 -34 -36 -49 0
-10 -34 -36 -51 0
-10 -34 -36 -58 0
-10 -34 -49 -51 0
-10 -34 -49 -58 0
-10 -34 -51 -58 0
-10 -36 -49 -51 0
-10 -36 -49 -58 0
-10 -36 -51 -58 0
-10 -49 -51 -58 0
-16 -27 -34 -36 0
-16 -27 -34 -49 0
-16 -27 -34 -51 0
-16 -27 -34 -58 0
-16 -27 -36 -49 0
-16 -27 -36 -51 0
-16 -27 -36 -58 0
-16 -27 -49 -51 0
-16 -27 -49 -58 0
-16 -27 -51 -58 0
-16 -34 -36 -49 0
-16 -34 -36 -51 0
-16 -34 -36 -58 0
-16 -34 -49 -51 0
-16 -34 -49 -58 0
-16 -34 -51 -58 0
-16 -36 -49 -51 0
-16 -36 -49 -58 0
-16 -36 -51 -58 0
-16 -49 -51 -58 0
-27 -34 -36 -49 0
-27 -34 -36 -51 0
-27 -34 -36 -58 0
-27 -34 -49 -51 0
-27 -34 -49 -58 0
-27 -34 -51 -58 0
-27 -36 -49 -51 0
-27 -36 -49 -58 0
-27 -36 -51 -58 0
-27 -49 -51 -58 0
-34 -36 -49 -51 0
-34 -36 -49 -58 0
-34 -36 -51 -58 0
-34 -49 -51 -58 0
-36 -49 -51 -58 0
-3 -13 -18 -22 0
-3 -13 -18 -32 0
-3 -13 -18 -40 0
-3 -13 -18 -43 0
-3 -13 -18 -50 0
-3 -13 -18 -60 0
-3 -13 -22 -32 0
-3 -13 -22 -40 0
-3 -13 -22 -43 0
-3 -13 -22 -50 0
-3 -13 -22 -60 0
-3 -13 -32 -40 0
-3 -13 -32 -43 0
-3 -13 -32 -50 0
-3 -13 -32 -60 0
-3 -13 -40 -43 0
-3 -13 -40 -50 0
-3 -13 -40 -60 0
-3 -13 -43 -50 0
-3 -13 -43 -60 0
-3 -13 -50 -60 0
-3 -18 -22 -32 0
-3 -18 -22 -40 0
-3 -18 -22 -43 0
-3 -18 -22 -50 0
-3 -18 -22 -60 0
-3 -18 -32 -40 0
-3 -18 -32 -43 0
-3 -18 -32 -50 0
-3 -18 -32 -60 0
-3 -18 -40 -43 0
-3 -18 -40 -50 0
-3 -18 -40 -60 0
-3 -18 -43 -50 0
-3 -18 -43 -60 0
-3 -18 -50 -60 0
-3 -22 -32 -40 0
-3 -22 -32 -43 0
-3 -22 -32 -50 0
-3 -22 -32 -60 0
-3 -22 -40 -43 0
-3 -22 -40 -50 0
-3 -22 -40 -60 0
-3 -22 -43 -50 0
-3 -22 -43 -60 0
-3 -22 -50 -60 0
-3 -32 -40 -43 0
-3 -32 -40 -50 0
-3 -32 -40 -60 0
-3 -32 -43 -50 0
-3 -32 -43 -60 0
-3 -32 -50 -60 0
-3 -40 -43 -50 0
-3 -40 -43 -60 0
-3 -40 -50 -60 0
-3 -43 -50 -60 0
-13 -18 -22 -32 0
-13 -18 -22 -40 0
-13 -18 -22 -43 0
-13 -18 -22 -50 0
-13 -18 -22 -60 0
-13 -18 -32 -40 0
-13 -18 -32 -43 0
-13 -18 -32 -50 0
-13 -18 -32 -60 0
-13 -18 -40 -43 0
-13 -18 -40 -50 0
-13 -18 -40 -60 0
-13 -18 -43 -50 0
-13 -18 -43 -60 0
-13 -18 -50 -60 0
-13 -22 -32 -40 0
-13 -22 -32 -43 0
-13 -22 -32 -50 0
-13 -22 -32 -60 0
-13 -22 -40 -43 0
-13 -22 -40 -50 0
-13 -22 -40 -60 0
-13 -22 -43 -50 0
-13 -22 -43 -60 0
-13 -22 -50 -60 0
-13 -32 -40 -43 0
-13 -32 -40 -50 0
-13 -32 -40 -60 0
-13 -32 -43 -50 0
-13 -32 -43 -60 0
-13 -32 -50 -60 0
-13 -40 -43 -50 0
-13 -40 -43 -60 0
-13 -40 -50 -60 0
-13 -43 -50 -60 0
-18 -22 -32 -40 0
-18 -22 -32 -43 0
-18 -22 -32 -50 0
-18 -22 -32 -60 0
-18 -22 -40 -43 0
-18 -22 -40 -50 0
-18 -22 -40 -60 0
-18 -22 -43 -50 0
-18 -22 -43 -60 0
-18 -22 -50 -60 0
-18 -32 -40 -43 0
-18 -32 -40 -50 0
-18 -32 -40 -60 0
-18 -32 -43 -50 0
-18 -32 -43 -60 0
-18 -32 -50 -60 0
-18 -40 -43 -50 0
-18 -40 -43 -60 0
-18 -40 -50 -60 0
-18 -43 -50 -60 0
-22 -32 -40 -43 0
-22 -32 -40 -50 0
-22 -32 -40 -60 0
-22 -32 -43 -50 0
-22 -32 -43 -60 0
-22 -32 -50 -60 0
-22 -40 -43 -50 0
-22 -40 -43 -60 0
-22 -40 -50 -60 0
-22 -43 -50 -60 0
-32 -40 -43 -50 0
-32 -40 -43 -60 0
-32 -40 -50 -60 0
-32 -43 -50 -60 0
-40 -43 -50 -60 0
-6 -8 -15 -22 0
-6 -8 -15 -33 0
-6 -8 -15 -38 0
-6 -8 -15 -44 0
-6 -8 -15 -51 0
-6 -8 -15 -62 0
-6 -8 -22 -33 0
-6 -8 -22 -38 0
-6 -8 -22 -44 0
-6 -8 -22 -51 0
-6 -8 -22 -62 0
-6 -8 -33 -38 0
-6 -8 -33 -44 0
-6 -8 -33 -51 0
-6 -8 -33 -62 0
-6 -8 -38 -44 0
-6 -8 -38 -51 0
-6 -8 -38 -62 0
-6 -8 -44 -51 0
-6 -8 -44 -62 0
-6 -8 -51 -62 0
-6 -15 -22 -33 0
-6 -15 -22 -38 0
-6 -15 -22 -44 0
-6 -15 -22 -51 0
-6 -15 -22 -62 0
-6 -15 -33 -38 0
-6 -15 -33 -44 0
-6 -15 -33 -51 0
-6 -15 -33 -62 0
-6 -15 -38 -44 0
-6 -15 -38 -51 0
-6 -15 -38 -62 0
-6 -15 -44 -51 0
-6 -15 -44 -62 0
-6 -15 -51 -62 0
-6 -22 -33 -38 0
-6 -22 -33 -44 0
-6 -22 -33 -51 0
-6 -22 -33 -62 0
-6 -22 -38 -44 0
-6 -22 -38 -51 0
-6 -22 -38 -62 0
-6 -22 -44 -51 0
-6 -22 -44 -62 0
-6 -22 -51 -62 0
-6 -33 -38 -44 0
-6 -33 -38 -51 0
-6 -33 -38 -62 0
-6 -33 -44 -51 0
-6 -33 -44 -62 0
-6 -33 -51 -62 0
-6 -38 -44 -51 0
-6 -38 -44 -62 0
-6 -38 -51 -62 0
-6 -44 -51 -62 0
-8 -15 -22 -33 0
-8 -15 -22 -38 0
-8 -15 -22 -44 0
-8 -15 -22 -51 0
-8 -15 -22 -62 0
-8 -15 -33 -38 0
-8 -15 -33 -44 0
-8 -15 -33 -51 0
-8 -15 -33 -62 0
-8 -15 -38 -44 0
-8 -15 -38 -51 0
-8 -15 -38 -62 0
-8 -15 -44 -51 0
-8 -15 -44 -62 0
-8 -15 -51 -62 0
-8 -22 -33 -38 0
-8 -22 -33 -44 0
-8 -22 -33 -51 0
-8 -22 -33 -62 0
-8 -22 -38 -44 0
-8 -22 -38 -51 0
-8 -22 -38 -62 0
-8 -22 -44 -51 0
-8 -22 -44 -62 0
-8 -22 -51 -62 0
-8 -33 -38 -44 0
-8 -33 -38 -51 0
-8 -33 -38 -62 0
-8 -33 -44 -51 0
-8 -33 -44 -62 0
-8 -33 -51 -62 0
-8 -38 -44 -51 0
-8 -38 -44 -62 0
-8 -38 -51 -62 0
-8 -44 -51 -62 0
-15 -22 -33 -38 0
-15 -22 -33 -44 0
-15 -22 -33 -51 0
-15 -22 -33 -62 0
-15 -22 -38 -44 0
-15 -22 -38 -51 0
-15 -22 -38 -62 0
-15 -22 -44 -51 0
-15 -22 -44 -62 0
-15 -22 -51 -62 0
-15 -33 -38 -44 0
-15 -33 -38 -51 0
-15 -33 -38 -62 0
-15 -33 -44 -51 0
-15 -33 -44 -62 0
-15 -33 -51 -62 0
-15 -38 -44 -51 0
-15 -38 -44 -62 0
-15 -38 -51 -62 0
-15 -44 -51 -62 0
-22 -33 -38 -44 0
-22 -33 -38 -51 0
-22 -33 -38 -62 0
-22 -33 -44 -51 0
-22 -33 -44 -62 0
-22 -33 -51 -62 0
-22 -38 -44 -51 0
-22 -38 -44 -62 0
-22 -38 -51 -62 0
-22 -44 -51 -62 0
-33 -38 -44 -51 0
-33 -38 -44 -62 0
-33 -38 -51 -62 0
-33 -44 -51 -62 0
-38 -44 -51 -62 0
-6 -14 -15 -25 0
-6 -14 -15 -30 0
-6 -14 -15 -37 0
-6 -14 -15 -46 0
-6 -14 -15 -56 0
-6 -14 -15 -61 0
-6 -14 -25 -30 0
-6 -14 -25 -37 0
-6 -14 -25 -46 0
-6 -14 -25 -56 0
-6 -14 -25 -61 0
-6 -14 -30 -37 0
-6 -14 -30 -46 0
-6 -14 -30 -56 0
-6 -14 -30 -61 0
-6 -14 -37 -46 0
-6 -14 -37 -56 0
-6 -14 -37 -61 0
-6 -14 -46 -56 0
-6 -14 -46 -61 0
-6 -14 -56 -61 0
-6 -15 -25 -30 0
-6 -15 -25 -37 0
-6 -15 -25 -46 0
-6 -15 -25 -56 0
-6 -15 -25 -61 0
-6 -15 -30 -37 0
-6 -15 -30 -46 0
-6 -15 -30 -56 0
-6 -15 -30 -61 0
-6 -15 -37 -46 0
-6 -15 -37 -56 0
-6 -15 -37 -61 0
-6 -15 -46 -56 0
-6 -15 -46 -61 0
-6 -15 -56 -61 0
-6 -25 -30 -37 0
-6 -25 -30 -46 0
-6 -25 -30 -56 0
-6 -25 -30 -61 0
-6 -25 -37 -46 0
-6 -25 -37 -56 0
-6 -25 -37 -61 0
-6 -25 -46 -56 0
-6 -25 -46 -61 0
-6 -25 -56 -61 0
-6 -30 -37 -46 0
-6 -30 -37 -56 0
-6 -30 -37 -61 0
-6 -30 -46 -56 0
-6 -30 -46 -61 0
-6 -30 -56 -61 0
-6 -37 -46 -56 0
-6 -37 -46 -61 0
-6 -37 -56 -61 0
-6 -46 -56 -61 0
-14 -15 -25 -30 0
-14 -15 -25 -37 0
-14 -15 -25 -46 0
-14 -15 -25 -56 0
-14 -15 -25 -61 0
-14 -15 -30 -37 0
-14 -15 -30 -46 0
-14 -15 -30 -56 0
-14 -15 -30 -61 0
-14 -15 -37 -46 0
-14 -15 -37 -56 0
-14 -15 -37 -61 0
-14 -15 -46 -56 0
-14 -15 -46 -61 0
-14 -15 -56 -61 0
-14 -25 -30 -37 0
-14 -25 -30 -46 0
-14 -25 -30 -56 0
-14 -25 -30 -61 0
-14 -25 -37 -46 0
-14 -25 -37 -56 0
-14 -25 -37 -61 0
-14 -25 -46 -56 0
-14 -25 -46 -61 0
-14 -25 -56 -61 0
-14 -30 -37 -46 0
-14 -30 -37 -56 0
-14 -30 -37 -61 0
-14 -30 -46 -56 0
-14 -30 -46 -61 0
-14 -30 -56 -61 0
-14 -37 -46 -56 0
-14 -37 -46 -61 0
-14 -37 -56 -61 0
-14 -46 -56 -61 0
-15 -25 -30 -37 0
-15 -25 -30 -46 0
-15 -25 -30 -56 0
-15 -25 -30 -61 0
-15 -25 -37 -46 0
-15 -25 -37 -56 0
-15 -25 -37 -61 0
-15 -25 -46 -56 0
-15 -25 -46 -61 0
-15 -25 -56 -61 0
-15 -30 -37 -46 0
-15 -30 -37 -56 0
-15 -30 -37 -61 0
-15 -30 -46 -56 0
-15 -30 -46 -61 0
-15 -30 -56 -61 0
-15 -37 -46 -56 0
-15 -37 -46 -61 0
-15 -37 -56 -61 0
-15 -46 -56 -61 0
-25 -30 -37 -46 0
-25 -30 -37 -56 0
-25 -30 -37 -61 0
-25 -30 -46 -56 0
-25 -30 -46 -61 0
-25 -30 -56 -61 0
-25 -37 -46 -56 0
-25 -37 -46 -61 0
-25 -37 -56 -61 0
-25 -46 -56 -61 0
-30 -37 -46 -56 0
-30 -37 -46 -61 0
-30 -37 -56 -61 0
-30 -46 -56 -61 0
-37 -46 -56 -61 0
-1 -8 -21 -28 0
-1 -8 -21 -33 0
-1 -8 -21 -38 0
-1 -8 -21 -46 0
-1 -8 -21 -50 0
-1 -8 -21 -59 0
-1 -8 -28 -33 0
-1 -8 -28 -38 0
-1 -8 -28 -46 0
-1 -8 -28 -50 0
-1 -8 -28 -59 0
-1 -8 -33 -38 0
-1 -8 -33 -46 0
-1 -8 -33 -50 0
-1 -8 -33 -59 0
-1 -8 -38 -46 0
-1 -8 -38 -50 0
-1 -8 -38 -59 0
-1 -8 -46 -50 0
-1 -8 -46 -59 0
-1 -8 -50 -59 0
-1 -21 -28 -33 0
-1 -21 -28 -38 0
-1 -21 -28 -46 0
-1 -21 -28 -50 0
-1 -21 -28 -59 0
-1 -21 -33 -38 0
-1 -21 -33 -46 0
-1 -21 -33 -50 0
-1 -21 -33 -59 0
-1 -21 -38 -46 0
-1 -21 -38 -50 0
-1 -21 -38 -59 0
-1 -21 -46 -50 0
-1 -21 -46 -59 0
-1 -21 -50 -59 0
-1 -28 -33 -38 0
-1 -28 -33 -46 0
-1 -28 -33 -50 0
-1 -28 -33 -59 0
-1 -28 -38 -46 0
-1 -28 -38 -50 0
-1 -28 -38 -59 0
-1 -28 -46 -50 0
-1 -28 -46 -59 0
-1 -28 -50 -59 0
-1 -33 -38 -46 0
-1 -33 -38 -50 0
-1 -33 -38 -59 0
-1 -33 -46 -50 0
-1 -33 -46 -59 0
-1 -33 -50 -59 0
-1 -38 -46 -50 0
-1 -38 -46 -59 0
-1 -38 -50 -59 0
-1 -46 -50 -59 0
-8 -21 -28 -33 0
-8 -21 -28 -38 0
-8 -21 -28 -46 0
-8 -21 -28 -50 0
-8 -21 -28 -59 0
-8 -21 -33 -38 0
-8 -21 -33 -46 0
-8 -21 -33 -50 0
-8 -21 -33 -59 0
-8 -21 -38 -46 0
-8 -21 -38 -50 0
-8 -21 -38 -59 0
-8 -21 -46 -50 0
-8 -21 -46 -59 0
-8 -21 -50 -59 0
-8 -28 -33 -38 0
-8 -28 -33 -46 0
-8 -28 -33 -50 0
-8 -28 -33 -59 0
-8 -28 -38 -46 0
-8 -28 -38 -50 0
-8 -28 -38 -59 0
-8 -28 -46 -50 0
-8 -28 -46 -59 0
-8 -28 -50 -59 0
-8 -33 -38 -46 0
-8 -33 -38 -50 0
-8 -33 -38 -59 0
-8 -33 -46 -50 0
-8 -33 -46 -59 0
-8 -33 -50 -59 0
-8 -38 -46 -50 0
-8 -38 -46 -59 0
-8 -38 -50 -59 0
-8 -46 -50 -59 0
-21 -28 -33 -38 0
-21 -28 -33 -46 0
-21 -28 -33 -50 0
-21 -28 -33 -59 0
-21 -28 -38 -46 0
-21 -28 -38 -50 0
-21 -28 -38 -59 0
-21 -28 -46 -50 0
-21 -28 -46 -59 0
-21 -28 -50 -59 0
-21 -33 -38 -46 0
-21 -33 -38 -50 0
-21 -33 -38 -59 0
-21 -33 -46 -50 0
-21 -33 -46 -59 0
-21 -33 -50 -59 0
-21 -38 -46 -50 0
-21 -38 -46 -59 0
-21 -38 -50 -59 0
-21 -46 -50 -59 0
-28 -33 -38 -46 0
-28 -33 -38 -50 0
-28 -33 -38 -59 0
-28 -33 -46 -50 0
-28 -33 -46 -59 0
-28 -33 -50 -59 0
-28 -38 -46 -50 0
-28 -38 -46 -59 0
-28 -38 -50 -59 0
-28 -46 -50 -59 0
-33 -38 -46 -50 0
-33 -38 -46 -59 0
-33 -38 -50 -59 0
-33 -46 -50 -59 0
-38 -46 -50 -59 0
-4 -12 -19 -26 0
-4 -12 -19 -33 0
-4 -12 -19 -36 0
-4 -12 -19 -43 0
-4 -12 -19 -54 0
-4 -12 -19 -58 0
-4 -12 -26 -33 0
-4 -12 -26 -36 0
-4 -12 -26 -43 0
-4 -12 -26 -54 0
-4 -12 -26 -58 0
-4 -12 -33 -36 0
-4 -12 -33 -43 0
-4 -12 -33 -54 0
-4 -12 -33 -58 0
-4 -12 -36 -43 0
-4 -12 -36 -54 0
-4 -12 -36 -58 0
-4 -12 -43 -54 0
-4 -12 -43 -58 0
-4 -12 -54 -58 0
-4 -19 -26 -33 0
-4 -19 -26 -36 0
-4 -19 -26 -43 0
-4 -19 -26 -54 0
-4 -19 -26 -58 0
-4 -19 -33 -36 0
-4 -19 -33 -43 0
-4 -19 -33 -54 0
-4 -19 -33 -58 0
-4 -19 -36 -43 0
-4 -19 -36 -54 0
-4 -19 -36 -58 0
-4 -19 -43 -54 0
-4 -19 -43 -58 0
-4 -19 -54 -58 0
-4 -26 -33 -36 0
-4 -26 -33 -43 0
-4 -26 -33 -54 0
-4 -26 -33 -58 0
-4 -26 -36 -43 0
-4 -26 -36 -54 0
-4 -26 -36 -58 0
-4 -26 -43 -54 0
-4 -26 -43 -58 0
-4 -26 -54 -58 0
-4 -33 -36 -43 0
-4 -33 -36 -54 0
-4 -33 -36 -58 0
-4 -33 -43 -54 0
-4 -33 -43 -58 0
-4 -33 -54 -58 0
-4 -36 -43 -54 0
-4 -36 -43 -58 0
-4 -36 -54 -58 0
-4 -43 -54 -58 0
-12 -19 -26 -33 0
-12 -19 -26 -36 0
-12 -19 -26 -43 0
-12 -19 -26 -54 0
-12 -19 -26 -58 0
-12 -19 -33 -36 0
-12 -19 -33 -43 0
-12 -19 -33 -54 0
-12 -19 -33 -58 0
-12 -19 -36 -43 0
-12 -19 -36 -54 0
-12 -19 -36 -58 0
-12 -19 -43 -54 0
-12 -19 -43 -58 0
-12 -19 -54 -58 0
-12 -26 -33 -36 0
-12 -26 -33 -43 0
-12 -26 -33 -54 0
-12 -26 -33 -58 0
-12 -26 -36 -43 0
-12 -26 -36 -54 0
-12 -26 -36 -58 0
-12 -26 -43 -54 0
-12 -26 -43 -58 0
-12 -26 -54 -58 0
-12 -33 -36 -43 0
-12 -33 -36 -54 0
-12 -33 -36 -58 0
-12 -33 -43 -54 0
-12 -33 -43 -58 0
-12 -33 -54 -58 0
-12 -36 -43 -54 0
-12 -36 -43 -58 0
-12 -36 -54 -58 0
-12 -43 -54 -58 0
-19 -26 -33 -36 0
-19 -26 -33 -43 0
-19 -26 -33 -54 0
-19 -26 -33 -58 0
-19 -26 -36 -43 0
-19 -26 -36 -54 0
-19 -26 -36 -58 0
-19 -26 -43 -54 0
-19 -26 -43 -58 0
-19 -26 -54 -58 0
-19 -33 -36 -43 0
-19 -33 -36 -54 0
-19 -33 -36 -58 0
-19 -33 -43 -54 0
-19 -33 -43 -58 0
-19 -33 -54 -58 0
-19 -36 -43 -54 0
-19 -36 -43 -58 0
-19 -36 -54 -58 0
-19 -43 -54 -58 0
-26 -33 -36 -43 0
-26 -33 -36 -54 0
-26 -33 -36 -58 0
-26 -33 -43 -54 0
-26 -33 -43 -58 0
-26 -33 -54 -58 0
-26 -36 -43 -54 0
-26 -36 -43 -58 0
-26 -36 -54 -58 0
-26 -43 -54 -58 0
-33 -36 -43 -54 0
-33 -36 -43 -58 0
-33 -36 -54 -58 0
-33 -43 -54 -58 0
-36 -43 -54 -58 0
-3 -14 -21 -23 0
-3 -14 -21 -29 0
-3 -14 -21 -41 0
-3 -14 -21 -49 0
-3 -14 -21 -55 0
-3 -14 -21 -58 0
-3 -14 -23 -29 0
-3 -14 -23 -41 0
-3 -14 -23 -49 0
-3 -14 -23 -55 0
-3 -14 -23 -58 0
-3 -14 -29 -41 0
-3 -14 -29 -49 0
-3 -14 -29 -55 0
-3 -14 -29 -58 0
-3 -14 -41 -49 0
-3 -14 -41 -55 0
-3 -14 -41 -58 0
-3 -14 -49 -55 0
-3 -14 -49 -58 0
-3 -14 -55 -58 0
-3 -21 -23 -29 0
-3 -21 -23 -41 0
-3 -21 -23 -49 0
-3 -21 -23 -55 0
-3 -21 -23 -58 0
-3 -21 -29 -41 0
-3 -21 -29 -49 0
-3 -21 -29 -55 0
-3 -21 -29 -58 0
-3 -21 -41 -49 0
-3 -21 -41 -55 0
-3 -21 -41 -58 0
-3 -21 -49 -55 0
-3 -21 -49 -58 0
-3 -21 -55 -58 0
-3 -23 -29 -41 0
-3 -23 -29 -49 0
-3 -23 -29 -55 0
-3 -23 -29 -58 0
-3 -23 -41 -49 0
-3 -23 -41 -55 0
-3 -23 -41 -58 0
-3 -23 -49 -55 0
-3 -23 -49 -58 0
-3 -23 -55 -58 0
-3 -29 -41 -49 0
-3 -29 -41 -55 0
-3 -29 -41 -58 0
-3 -29 -49 -55 0
-3 -29 -49 -58 0
-3 -29 -55 -58 0
-3 -41 -49 -55 0
-3 -41 -49 -58 0
-3 -41 -55 -58 0
-3 -49 -55 -58 0
-14 -21 -23 -29 0
-14 -21 -23 -41 0
-14 -21 -23 -49 0
-14 -21 -23 -55 0
-14 -21 -23 -58 0
-14 -21 -29 -41 0
-14 -21 -29 -49 0
-14 -21 -29 -55 0
-14 -21 -29 -58 0
-14 -21 -41 -49 0
-14 -21 -41 -55 0
-14 -21 -41 -58 0
-14 -21 -49 -55 0
-14 -21 -49 -58 0
-14 -21 -55 -58 0
-14 -23 -29 -41 0
-14 -23 -29 -49 0
-14 -23 -29 -55 0
-14 -23 -29 -58 0
-14 -23 -41 -49 0
-14 -23 -41 -55 0
-14 -23 -41 -58 0
-14 -23 -49 -55 0
-14 -23 -49 -58 0
-14 -23 -55 -58 0
-14 -29 -41 -49 0
-14 -29 -41 -55 0
-14 -29 -41 -58 0
-14 -29 -49 -55 0
-14 -29 -49 -58 0
-14 -29 -55 -58 0
-14 -41 -49 -55 0
-14 -41 -49 -58 0
-14 -41 -55 -58 0
-14 -49 -55 -58 0
-21 -23 -29 -41 0
-21 -23 -29 -49 0
-21 -23 -29 -55 0
-21 -23 -29 -58 0
-21 -23 -41 -49 0
-21 -23 -41 -55 0
-21 -23 -41 -58 0
-21 -23 -49 -55 0
-21 -23 -49 -58 0
-21 -23 -55 -58 0
-21 -29 -41 -49 0
-21 -29 -41 -55 0
-21 -29 -41 -58 0
-21 -29 -49 -55 0
-21 -29 -49 -58 0
-21 -29 -55 -58 0
-21 -41 -49 -55 0
-21 -41 -49 -58 0
-21 -41 -55 -58 0
-21 -49 -55 -58 0
-23 -29 -41 -49 0
-23 -29 -41 -55 0
-23 -29 -41 -58 0
-23 -29 -49 -55 0
-23 -29 -49 -58 0
-23 -29 -55 -58 0
-23 -41 -49 -55 0
-23 -41 -49 -58 0
-23 -41 -55 -58 0
-23 -49 -55 -58 0
-29 -41 -49 -55 0
-29 -41 -49 -58 0
-29 -41 -55 -58 0
-29 -49 -55 -58 0
-41 -49 -55 -58 0
-4 -10 -17 -25 0
-4 -10 -17 -29 0
-4 -10 -17 -42 0
-4 -10 -17 -44 0
-4 -10 -17 -56 0
-4 -10 -17 -63 0
-4 -10 -25 -29 0
-4 -10 -25 -42 0
-4 -10 -25 -44 0
-4 -10 -25 -56 0
-4 -10 -25 -63 0
-4 -10 -29 -42 0
-4 -10 -29 -44 0
-4 -10 -29 -56 0
-4 -10 -29 -63 0
-4 -10 -42 -44 0
-4 -10 -42 -56 0
-4 -10 -42 -63 0
-4 -10 -44 -56 0
-4 -10 -44 -63 0
-4 -10 -56 -63 0
-4 -17 -25 -29 0
-4 -17 -25 -42 0
-4 -17 -25 -44 0
-4 -17 -25 -56 0
-4 -17 -25 -63 0
-4 -17 -29 -42 0
-4 -17 -29 -44 0
-4 -17 -29 -56 0
-4 -17 -29 -63 0
-4 -17 -42 -44 0
-4 -17 -42 -56 0
-4 -17 -42 -63 0
-4 -17 -44 -56 0
-4 -17 -44 -63 0
-4 -17 -56 -63 0
-4 -25 -29 -42 0
-4 -25 -29 -44 0
-4 -25 -29 -56 0
-4 -25 -29 -63 0
-4 -25 -42 -44 0
-4 -25 -42 -56 0
-4 -25 -42 -63 0
-4 -25 -44 -56 0
-4 -25 -44 -63 0
-4 -25 -56 -63 0
-4 -29 -42 -44 0
-4 -29 -42 -56 0
-4 -29 -42 -63 0
-4 -29 -44 -56 0
-4 -29 -44 -63 0
-4 -29 -56 -63 0
-4 -42 -44 -56 0
-4 -42 -44 -63 0
-4 -42 -56 -63 0
-4 -44 -56 -63 0
-10 -17 -25 -29 0
-10 -17 -25 -42 0
-10 -17 -25 -44 0
-10 -17 -25 -56 0
-10 -17 -25 -63 0
-10 -17 -29 -42 0
-10 -17 -29 -44 0
-10 -17 -29 -56 0
-10 -17 -29 -63 0
-10 -17 -42 -44 0
-10 -17 -42 -56 0
-10 -17 -42 -63 0
-10 -17 -44 -56 0
-10 -17 -44 -63 0
-10 -17 -56 -63 0
-10 -25 -29 -42 0
-10 -25 -29 -44 0
-10 -25 -29 -56 0
-10 -25 -29 -63 0
-10 -25 -42 -44 0
-10 -25 -42 -56 0
-10 -25 -42 -63 0
-10 -25 -44 -56 0
-10 -25 -44 -63 0
-10 -25 -56 -63 0
-10 -29 -42 -44 0
-10 -29 -42 -56 0
-10 -29 -42 -63 0
-10 -29 -44 -56 0
-10 -29 -44 -63 0
-10 -29 -56 -63 0
-10 -42 -44 -56 0
-10 -42 -44 -63 0
-10 -42 -56 -63 0
-10 -44 -56 -63 0
-17 -25 -29 -42 0
-17 -25 -29 -44 0
-17 -25 -29 -56 0
-17 -25 -29 -63 0
-17 -25 -42 -44 0
-17 -25 -42 -56 0
-17 -25 -42 -63 0
-17 -25 -44 -56 0
-17 -25 -44 -63 0
-17 -25 -56 -63 0
-17 -29 -42 -44 0
-17 -29 -42 -56 0
-17 -29 -42 -63 0
-17 -29 -44 -56 0
-17 -29 -44 -63 0
-17 -29 -56 -63 0
-17 -42 -44 -56 0
-17 -42 -44 -63 0
-17 -42 -56 -63 0
-17 -44 -56 -63 0
-25 -29 -42 -44 0
-25 -29 -42 -56 0
-25 -29 -42 -63 0
-25 -29 -44 -56 0
-25 -29 -44 -63 0
-25 -29 -56 -63 0
-25 -42 -44 -56 0
-25 -42 -44 -63 0
-25 -42 -56 -63 0
-25 -44 -56 -63 0
-29 -42 -44 -56 0
-29 -42 -44 -63 0
-29 -42 -56 -63 0
-29 -44 -56 -63 0
-42 -44 -56 -63 0
-2 -11 -18 -24 0
-2 -11 -18 -30 0
-2 -11 -18 -36 0
-2 -11 -18 -47 0
-2 -11 -18 -50 0
-2 -11 -18 -61 0
-2 -11 -24 -30 0
-2 -11 -24 -36 0
-2 -11 -24 -47 0
-2 -11 -24 -50 0
-2 -11 -24 -61 0
-2 -11 -30 -36 0
-2 -11 -30 -47 0
-2 -11 -30 -50 0
-2 -11 -30 -61 0
-2 -11 -36 -47 0
-2 -11 -36 -50 0
-2 -11 -36 -61 0
-2 -11 -47 -50 0
-2 -11 -47 -61 0
-2 -11 -50 -61 0
-2 -18 -24 -30 0
-2 -18 -24 -36 0
-2 -18 -24 -47 0
-2 -18 -24 -50 0
-2 -18 -24 -61 0
-2 -18 -30 -36 0
-2 -18 -30 -47 0
-2 -18 -30 -50 0
-2 -18 -30 -61 0
-2 -18 -36 -47 0
-2 -18 -36 -50 0
-2 -18 -36 -61 0
-2 -18 -47 -50 0
-2 -18 -47 -61 0
-2 -18 -50 -61 0
-2 -24 -30 -36 0
-2 -24 -30 -47 0
-2 -24 -30 -50 0
-2 -24 -30 -61 0
-2 -24 -36 -47 0
-2 -24 -36 -50 0
-2 -24 -36 -61 0
-2 -24 -47 -50 0
-2 -24 -47 -61 0
-2 -24 -50 -61 0
-2 -30 -36 -47 0
-2 -30 -36 -50 0
-2 -30 -36 -61 0
-2 -30 -47 -50 0
-2 -30 -47 -61 0
-2 -30 -50 -61 0
-2 -36 -47 -50 0
-2 -36 -47 -61 0
-2 -36 -50 -61 0
-2 -47 -50 -61 0
-11 -18 -24 -30 0
-11 -18 -24 -36 0
-11 -18 -24 -47 0
-11 -18 -24 -50 0
-11 -18 -24 -61 0
-11 -18 -30 -36 0
-11 -18 -30 -47 0
-11 -18 -30 -50 0
-11 -18 -30 -61 0
-11 -18 -36 -47 0
-11 -18 -36 -50 0
-11 -18 -36 -61 0
-11 -18 -47 -50 0
-11 -18 -47 -61 0
-11 -18 -50 -61 0
-11 -24 -30 -36 0
-11 -24 -30 -47 0
-11 -24 -30 -50 0
-11 -24 -30 -61 0
-11 -24 -36 -47 0
-11 -24 -36 -50 0
-11 -24 -36 -61 0
-11 -24 -47 -50 0
-11 -24 -47 -61 0
-11 -24 -50 -61 0
-11 -30 -36 -47 0
-11 -30 -36 -50 0
-11 -30 -36 -61 0
-11 -30 -47 -50 0
-11 -30 -47 -61 0
-11 -30 -50 -61 0
-11 -36 -47 -50 0
-11 -36 -47 -61 0
-11 -36 -50 -61 0
-11 -47 -50 -61 0
-18 -24 -30 -36 0
-18 -24 -30 -47 0
-18 -24 -30 -50 0
-18 -24 -30 -61 0
-18 -24 -36 -47 0
-18 -24 -36 -50 0
-18 -24 -36 -61 0
-18 -24 -47 -50 0
-18 -24 -47 -61 0
-18 -24 -50 -61 0
-18 -30 -36 -47 0
-18 -30 -36 -50 0
-18 -30 -36 -61 0
-18 -30 -47 -50 0
-18 -30 -47 -61 0
-18 -30 -50 -61 0
-18 -36 -47 -50 0
-18 -36 -47 -61 0
-18 -36 -50 -61 0
-18 -47 -50 -61 0
-24 -30 -36 -47 0
-24 -30 -36 -50 0
-24 -30 -36 -61 0
-24 -30 -47 -50 0
-24 -30 -47 -61 0
-24 -30 -50 -61 0
-24 -36 -47 -50 0
-24 -36 -47 -61 0
-24 -36 -50 -61 0
-24 -47 -50 -61 0
-30 -36 -47 -50 0
-30 -36 -47 -61 0
-30 -36 -50 -61 0
-30 -47 -50 -61 0
-36 -47 -50 -61 0
-7 -14 -16 -25 0
-7 -14 -16 -33 0
-7 -14 -16 -42 0
-7 -14 -16 -44 0
-7 -14 -16 -51 0
-7 -14 -16 -59 0
-7 -14 -25 -33 0
-7 -14 -25 -42 0
-7 -14 -25 -44 0
-7 -14 -25 -51 0
-7 -14 -25 -59 0
-7 -14 -33 -42 0
-7 -14 -33 -44 0
-7 -14 -33 -51 0
-7 -14 -33 -59 0
-7 -14 -42 -44 0
-7 -14 -42 -51 0
-7 -14 -42 -59 0
-7 -14 -44 -51 0
-7 -14 -44 -59 0
-7 -14 -51 -59 0
-7 -16 -25 -33 0
-7 -16 -25 -42 0
-7 -16 -25 -44 0
-7 -16 -25 -51 0
-7 -16 -25 -59 0
-7 -16 -33 -42 0
-7 -16 -33 -44 0
-7 -16 -33 -51 0
-7 -16 -33 -59 0
-7 -16 -42 -44 0
-7 -16 -42 -51 0
-7 -16 -42 -59 0
-7 -16 -44 -51 0
-7 -16 -44 -59 0
-7 -16 -51 -59 0
-7 -25 -33 -42 0
-7 -25 -33 -44 0
-7 -25 -33 -51 0
-7 -25 -33 -59 0
-7 -25 -42 -44 0
-7 -25 -42 -51 0
-7 -25 -42 -59 0
-7 -25 -44 -51 0
-7 -25 -44 -59 0
-7 -25 -51 -59 0
-7 -33 -42 -44 0
-7 -33 -42 -51 0
-7 -33 -42 -59 0
-7 -33 -44 -51 0
-7 -33 -44 -59 0
-7 -33 -51 -59 0
-7 -42 -44 -51 0
-7 -42 -44 -59 0
-7 -42 -51 -59 0
-7 -44 -51 -59 0
-14 -16 -25 -33 0
-14 -16 -25 -42 0
-14 -16 -25 -44 0
-14 -16 -25 -51 0
-14 -16 -25 -59 0
-14 -16 -33 -42 0
-14 -16 -33 -44 0
-14 -16 -33 -51 0
-14 -16 -33 -59 0
-14 -16 -42 -44 0
-14 -16 -42 -51 0
-14 -16 -42 -59 0
-14 -16 -44 -51 0
-14 -16 -44 -59 0
-14 -16 -51 -59 0
-14 -25 -33 -42 0
-14 -25 -33 -44 0
-14 -25 -33 -51 0
-14 -25 -33 -59 0
-14 -25 -42 -44 0
-14 -25 -42 -51 0
-14 -25 -42 -59 0
-14 -25 -44 -51 0
-14 -25 -44 -59 0
-14 -25 -51 -59 0
-14 -33 -42 -44 0
-14 -33 -42 -51 0
-14 -33 -42 -59 0
-14 -33 -44 -51 0
-14 -33 -44 -59 0
-14 -33 -51 -59 0
-14 -42 -44 -51 0
-14 -42 -44 -59 0
-14 -42 -51 -59 0
-14 -44 -51 -59 0
-16 -25 -33 -42 0
-16 -25 -33 -44 0
-16 -25 -33 -51 0
-16 -25 -33 -59 0
-16 -25 -42 -44 0
-16 -25 -42 -51 0
-16 -25 -42 -59 0
-16 -25 -44 -51 0
-16 -25 -44 -59 0
-16 -25 -51 -59 0
-16 -33 -42 -44 0
-16 -33 -42 -51 0
-16 -33 -42 -59 0
-16 -33 -44 -51 0
-16 -33 -44 -59 0
-16 -33 -51 -59 0
-16 -42 -44 -51 0
-16 -42 -44 -59 0
-16 -42 -51 -59 0
-16 -44 -51 -59 0
-25 -33 -42 -44 0
-25 -33 -42 -51 0
-25 -33 -42 -59 0
-25 -33 -44 -51 0
-25 -33 -44 -59 0
-25 -33 -51 -59 0
-25 -42 -44 -51 0
-25 -42 -44 -59 0
-25 -42 -51 -59 0
-25 -44 -51 -59 0
-33 -42 -44 -51 0
-33 -42 -44 -59 0
-33 -42 -51 -59 0
-33 -44 -51 -59 0
-42 -44 -51 -59 0
-2 -10 -20 -26 0
-2 -10 -20 -30 0
-2 -10 -20 -39 0
-2 -10 -20 -45 0
-2 -10 -20 -50 0
-2 -10 -20 -61 0
-2 -10 -26 -30 0
-2 -10 -26 -39 0
-2 -10 -26 -45 0
-2 -10 -26 -50 0
-2 -10 -26 -61 0
-2 -10 -30 -39 0
-2 -10 -30 -45 0
-2 -10 -30 -50 0
-2 -10 -30 -61 0
-2 -10 -39 -45 0
-2 -10 -39 -50 0
-2 -10 -39 -61 0
-2 -10 -45 -50 0
-2 -10 -45 -61 0
-2 -10 -50 -61 0
-2 -20 -26 -30 0
-2 -20 -26 -39 0
-2 -20 -26 -45 0
-2 -20 -26 -50 0
-2 -20 -26 -61 0
-2 -20 -30 -39 0
-2 -20 -30 -45 0
-2 -20 -30 -50 0
-2 -20 -30 -61 0
-2 -20 -39 -45 0
-2 -20 -39 -50 0
-2 -20 -39 -61 0
-2 -20 -45 -50 0
-2 -20 -45 -61 0
-2 -20 -50 -61 0
-2 -26 -30 -39 0
-2 -26 -30 -45 0
-2 -26 -30 -50 0
-2 -26 -30 -61 0
-2 -26 -39 -45 0
-2 -26 -39 -50 0
-2 -26 -39 -61 0
-2 -26 -45 -50 0
-2 -26 -45 -61 0
-2 -26 -50 -61 0
-2 -30 -39 -45 0
-2 -30 -39 -50 0
-2 -30 -39 -61 0
-2 -30 -45 -50 0
-2 -30 -45 -61 0
-2 -30 -50 -61 0
-2 -39 -45 -50 0
-2 -39 -45 -61 0
-2 -39 -50 -61 0
-2 -45 -50 -61 0
-10 -20 -26 -30 0
-10 -20 -26 -39 0
-10 -20 -26 -45 0
-10 -20 -26 -50 0
-10 -20 -26 -61 0
-10 -20 -30 -39 0
-10 -20 -30 -45 0
-10 -20 -30 -50 0
-10 -20 -30 -61 0
-10 -20 -39 -45 0
-10 -20 -39 -50 0
-10 -20 -39 -61 0
-10 -20 -45 -50 0
-10 -20 -45 -61 0
-10 -20 -50 -61 0
-10 -26 -30 -39 0
-10 -26 -30 -45 0
-10 -26 -30 -50 0
-10 -26 -30 -61 0
-10 -26 -39 -45 0
-10 -26 -39 -50 0
-10 -26 -39 -61 0
-10 -26 -45 -50 0
-10 -26 -45 -61 0
-10 -26 -50 -61 0
-10 -30 -39 -45 0
-10 -30 -39 -50 0
-10 -30 -39 -61 0
-10 -30 -45 -50 0
-10 -30 -45 -61 0
-10 -30 -50 -61 0
-10 -39 -45 -50 0
-10 -39 -45 -61 0
-10 -39 -50 -61 0
-10 -45 -50 -61 0
-20 -26 -30 -39 0
-20 -26 -30 -45 0
-20 -26 -30 -50 0
-20 -26 -30 -61 0
-20 -26 -39 -45 0
-20 -26 -39 -50 0
-20 -26 -39 -61 0
-20 -26 -45 -50 0
-20 -26 -45 -61 0
-20 -26 -50 -61 0
-20 -30 -39 -45 0
-20 -30 -39 -50 0
-20 -30 -39 -61 0
-20 -30 -45 -50 0
-20 -30 -45 -61 0
-20 -30 -50 -61 0
-20 -39 -45 -50 0
-20 -39 -45 -61 0
-20 -39 -50 -61 0
-20 -45 -50 -61 0
-26 -30 -39 -45 0
-26 -30 -39 -50 0
-26 -30 -39 -61 0
-26 -30 -45 -50 0
-26 -30 -45 -61 0
-26 -30 -50 -61 0
-26 -39 -45 -50 0
-26 -39 -45 -61 0
-26 -39 -50 -61 0
-26 -45 -50 -61 0
-30 -39 -45 -50 0
-30 -39 -45 -61 0
-30 -39 -50 -61 0
-30 -45 -50 -61 0
-39 -45 -50 -61 0
-7 -9 -15 -27 0
-7 -9 -15 -30 0
-7 -9 -15 -42 0
-7 -9 -15 -47 0
-7 -9 -15 -52 0
-7 -9 -15 -59 0
-7 -9 -27 -30 0
-7 -9 -27 -42 0
-7 -9 -27 -47 0
-7 -9 -27 -52 0
-7 -9 -27 -59 0
-7 -9 -30 -42 0
-7 -9 -30 -47 0
-7 -9 -30 -52 0
-7 -9 -30 -59 0
-7 -9 -42 -47 0
-7 -9 -42 -52 0
-7 -9 -42 -59 0
-7 -9 -47 -52 0
-7 -9 -47 -59 0
-7 -9 -52 -59 0
-7 -15 -27 -30 0
-7 -15 -27 -42 0
-7 -15 -27 -47 0
-7 -15 -27 -52 0
-7 -15 -27 -59 0
-7 -15 -30 -42 0
-7 -15 -30 -47 0
-7 -15 -30 -52 0
-7 -15 -30 -59 0
-7 -15 -42 -47 0
-7 -15 -42 -52 0
-7 -15 -42 -59 0
-7 -15 -47 -52 0
-7 -15 -47 -59 0
-7 -15 -52 -59 0
-7 -27 -30 -42 0
-7 -27 -30 -47 0
-7 -27 -30 -52 0
-7 -27 -30 -59 0
-7 -27 -42 -47 0
-7 -27 -42 -52 0
-7 -27 -42 -59 0
-7 -27 -47 -52 0
-7 -27 -47 -59 0
-7 -27 -52 -59 0
-7 -30 -42 -47 0
-7 -30 -42 -52 0
-7 -30 -42 -59 0
-7 -30 -47 -52 0
-7 -30 -47 -59 0
-7 -30 -52 -59 0
-7 -42 -47 -52 0
-7 -42 -47 -59 0
-7 -42 -52 -59 0
-7 -47 -52 -59 0
-9 -15 -27 -30 0
-9 -15 -27 -42 0
-9 -15 -27 -47 0
-9 -15 -27 -52 0
-9 -15 -27 -59 0
-9 -15 -30 -42 0
-9 -15 -30 -47 0
-9 -15 -30 -52 0
-9 -15 -30 -59 0
-9 -15 -42 -47 0
-9 -15 -42 -52 0
-9 -15 -42 -59 0
-9 -15 -47 -52 0
-9 -15 -47 -59 0
-9 -15 -52 -59 0
-9 -27 -30 -42 0
-9 -27 -30 -47 0
-9 -27 -30 -52 0
-9 -27 -30 -59 0
-9 -27 -42 -47 0
-9 -27 -42 -52 0
-9 -27 -42 -59 0
-9 -27 -47 -52 0
-9 -27 -47 -59 0
-9 -27 -52 -59 0
-9 -30 -42 -47 0
-9 -30 -42 -52 0
-9 -30 -42 -59 0
-9 -30 -47 -52 0
-9 -30 -47 -59 0
-9 -30 -52 -59 0
-9 -42 -47 -52 0
-9 -42 -47 -59 0
-9 -42 -52 -59 0
-9 -47 -52 -59 0
-15 -27 -30 -42 0
-15 -27 -30 -47 0
-15 -27 -30 -52 0
-15 -27 -30 -59 0
-15 -27 -42 -47 0
-15 -27 -42 -52 0
-15 -27 -42 -59 0
-15 -27 -47 -52 0
-15 -27 -47 -59 0
-15 -27 -52 -59 0
-15 -30 -42 -47 0
-15 -30 -42 -52 0
-15 -30 -42 -59 0
-15 -30 -47 -52 0
-15 -30 -47 -59 0
-15 -30 -52 -59 0
-15 -42 -47 -52 0
-15 -42 -47 -59 0
-15 -42 -52 -59 0
-15 -47 -52 -59 0
-27 -30 -42 -47 0
-27 -30 -42 -52 0
-27 -30 -42 -59 0
-27 -30 -47 -52 0
-27 -30 -47 -59 0
-27 -30 -52 -59 0
-27 -42 -47 -52 0
-27 -42 -47 -59 0
-27 -42 -52 -59 0
-27 -47 -52 -59 0
-30 -42 -47 -52 0
-30 -42 -47 -59 0
-30 -42 -52 -59 0
-30 -47 -52 -59 0
-42 -47 -52 -59 0
-2 -13 -17 -28 0
-2 -13 -17 -30 0
-2 -13 -17 -36 0
-2 -13 -17 -47 0
-2 -13 -17 -56 0
-2 -13 -17 -60 0
-2 -13 -28 -30 0
-2 -13 -28 -36 0
-2 -13 -28 -47 0
-2 -13 -28 -56 0
-2 -13 -28 -60 0
-2 -13 -30 -36 0
-2 -13 -30 -47 0
-2 -13 -30 -56 0
-2 -13 -30 -60 0
-2 -13 -36 -47 0
-2 -13 -36 -56 0
-2 -13 -36 -60 0
-2 -13 -47 -56 0
-2 -13 -47 -60 0
-2 -13 -56 -60 0
-2 -17 -28 -30 0
-2 -17 -28 -36 0
-2 -17 -28 -47 0
-2 -17 -28 -56 0
-2 -17 -28 -60 0
-2 -17 -30 -36 0
-2 -17 -30 -47 0
-2 -17 -30 -56 0
-2 -17 -30 -60 0
-2 -17 -36 -47 0
-2 -17 -36 -56 0
-2 -17 -36 -60 0
-2 -17 -47 -56 0
-2 -17 -47 -60 0
-2 -17 -56 -60 0
-2 -28 -30 -36 0
-2 -28 -30 -47 0
-2 -28 -30 -56 0
-2 -28 -30 -60 0
-2 -28 -36 -47 0
-2 -28 -36 -56 0
-2 -28 -36 -60 0
-2 -28 -47 -56 0
-2 -28 -47 -60 0
-2 -28 -56 -60 0
-2 -30 -36 -47 0
-2 -30 -36 -56 0
-2 -30 -36 -60 0
-2 -30 -47 -56 0
-2 -30 -47 -60 0
-2 -30 -56 -60 0
-2 -36 -47 -56 0
-2 -36 -47 -60 0
-2 -36 -56 -60 0
-2 -47 -56 -60 0
-13 -17 -28 -30 0
-13 -17 -28 -36 0
-13 -17 -28 -47 0
-13 -17 -28 -56 0
-13 -17 -28 -60 0
-13 -17 -30 -36 0
-13 -17 -30 -47 0
-13 -17 -30 -56 0
-13 -17 -30 -60 0
-13 -17 -36 -47 0
-13 -17 -36 -56 0
-13 -17 -36 -60 0
-13 -17 -47 -56 0
-13 -17 -47 -60 0
-13 -17 -56 -60 0
-13 -28 -30 -36 0
-13 -28 -30 -47 0
-13 -28 -30 -56 0
-13 -28 -30 -60 0
-13 -28 -36 -47 0
-13 -28 -36 -56 0
-13 -28 -36 -60 0
-13 -28 -47 -56 0
-13 -28 -47 -60 0
-13 -28 -56 -60 0
-13 -30 -36 -47 0
-13 -30 -36 -56 0
-13 -30 -36 -60 0
-13 -30 -47 -56 0
-13 -30 -47 -60 0
-13 -30 -56 -60 0
-13 -36 -47 -56 0
-13 -36 -47 -60 0
-13 -36 -56 -60 0
-13 -47 -56 -60 0
-17 -28 -30 -36 0
-17 -28 -30 -47 0
-17 -28 -30 -56 0
-17 -28 -30 -60 0
-17 -28 -36 -47 0
-17 -28 -36 -56 0
-17 -28 -36 -60 0
-17 -28 -47 -56 0
-17 -28 -47 -60 0
-17 -28 -56 -60 0
-17 -30 -36 -47 0
-17 -30 -36 -56 0
-17 -30 -36 -60 0
-17 -30 -47 -56 0
-17 -30 -47 -60 0
-17 -30 -56 -60 0
-17 -36 -47 -56 0
-17 -36 -47 -60 0
-17 -36 -56 -60 0
-17 -47 -56 -60 0
-28 -30 -36 -47 0
-28 -30 -36 -56 0
-28 -30 -36 -60 0
-28 -30 -47 -56 0
-28 -30 -47 -60 0
-28 -30 -56 -60 0
-28 -36 -47 -56 0
-28 -36 -47 -60 0
-28 -36 -56 -60 0
-28 -47 -56 -60 0
-30 -36 -47 -56 0
-30 -36 -47 -60 0
-30 -36 -56 -60 0
-30 -47 -56 -60 0
-36 -47 -56 -60 0
-5 -8 -18 -27 0
-5 -8 -18 -29 0
-5 -8 -18 -37 0
-5 -8 -18 -49 0
-5 -8 -18 -55 0
-5 -8 -18 -60 0
-5 -8 -27 -29 0
-5 -8 -27 -37 0
-5 -8 -27 -49 0
-5 -8 -27 -55 0
-5 -8 -27 -60 0
-5 -8 -29 -37 0
-5 -8 -29 -49 0
-5 -8 -29 -55 0
-5 -8 -29 -60 0
-5 -8 -37 -49 0
-5 -8 -37 -55 0
-5 -8 -37 -60 0
-5 -8 -49 -55 0
-5 -8 -49 -60 0
-5 -8 -55 -60 0
-5 -18 -27 -29 0
-5 -18 -27 -37 0
-5 -18 -27 -49 0
-5 -18 -27 -55 0
-5 -18 -27 -60 0
-5 -18 -29 -37 0
-5 -18 -29 -49 0
-5 -18 -29 -55 0
-5 -18 -29 -60 0
-5 -18 -37 -49 0
-5 -18 -37 -55 0
-5 -18 -37 -60 0
-5 -18 -49 -55 0
-5 -18 -49 -60 0
-5 -18 -55 -60 0
-5 -27 -29 -37 0
-5 -27 -29 -49 0
-5 -27 -29 -55 0
-5 -27 -29 -60 0
-5 -27 -37 -49 0
-5 -27 -37 -55 0
-5 -27 -37 -60 0
-5 -27 -49 -55 0
-5 -27 -49 -60 0
-5 -27 -55 -60 0
-5 -29 -37 -49 0
-5 -29 -37 -55 0
-5 -29 -37 -60 0
-5 -29 -49 -55 0
-5 -29 -49 -60 0
-5 -29 -55 -60 0
-5 -37 -49 -55 0
-5 -37 -49 -60 0
-5 -37 -55 -60 0
-5 -49 -55 -60 0
-8 -18 -27 -29 0
-8 -18 -27 -37 0
-8 -18 -27 -49 0
-8 -18 -27 -55 0
-8 -18 -27 -60 0
-8 -18 -29 -37 0
-8 -18 -29 -49 0
-8 -18 -29 -55 0
-8 -18 -29 -60 0
-8 -18 -37 -49 0
-8 -18 -37 -55 0
-8 -18 -37 -60 0
-8 -18 -49 -55 0
-8 -18 -49 -60 0
-8 -18 -55 -60 0
-8 -27 -29 -37 0
-8 -27 -29 -49 0
-8 -27 -29 -55 0
-8 -27 -29 -60 0
-8 -27 -37 -49 0
-8 -27 -37 -55 0
-8 -27 -37 -60 0
-8 -27 -49 -55 0
-8 -27 -49 -60 0
-8 -27 -55 -60 0
-8 -29 -37 -49 0
-8 -29 -37 -55 0
-8 -29 -37 -60 0
-8 -29 -49 -55 0
-8 -29 -49 -60 0
-8 -29 -55 -60 0
-8 -37 -49 -55 0
-8 -37 -49 -60 0
-8 -37 -55 -60 0
-8 -49 -55 -60 0
-18 -27 -29 -37 0
-18 -27 -29 -49 0
-18 -27 -29 -55 0
-18 -27 -29 -60 0
-18 -27 -37 -49 0
-18 -27 -37 -55 0
-18 -27 -37 -60 0
-18 -27 -49 -55 0
-18 -27 -49 -60 0
-18 -27 -55 -60 0
-18 -29 -37 -49 0
-18 -29 -37 -55 0
-18 -29 -37 -60 0
-18 -29 -49 -55 0
-18 -29 -49 -60 0
-18 -29 -55 -60 0
-18 -37 -49 -55 0
-18 -37 -49 -60 0
-18 -37 -55 -60 0
-18 -49 -55 -60 0
-27 -29 -37 -49 0
-27 -29 -37 -55 0
-27 -29 -37 -60 0
-27 -29 -49 -55 0
-27 -29 -49 -60 0
-27 -29 -55 -60 0
-27 -37 -49 -55 0
-27 -37 -49 -60 0
-27 -37 -55 -60 0
-27 -49 -55 -60 0
-29 -37 -49 -55 0
-29 -37 -49 -60 0
-29 -37 -55 -60 0
-29 -49 -55 -60 0
-37 -49 -55 -60 0
-7 -13 -18 -23 0
-7 -13 -18 -31 0
-7 -13 -18 -38 0
-7 -13 -18 -49 0
-7 -13 -18 -54 0
-7 -13 -18 -62 0
-7 -13 -23 -31 0
-7 -13 -23 -38 0
-7 -13 -23 -49 0
-7 -13 -23 -54 0
-7 -13 -23 -62 0
-7 -13 -31 -38 0
-7 -13 -31 -49 0
-7 -13 -31 -54 0
-7 -13 -31 -62 0
-7 -13 -38 -49 0
-7 -13 -38 -54 0
-7 -13 -38 -62 0
-7 -13 -49 -54 0
-7 -13 -49 -62 0
-7 -13 -54 -62 0
-7 -18 -23 -31 0
-7 -18 -23 -38 0
-7 -18 -23 -49 0
-7 -18 -23 -54 0
-7 -18 -23 -62 0
-7 -18 -31 -38 0
-7 -18 -31 -49 0
-7 -18 -31 -54 0
-7 -18 -31 -62 0
-7 -18 -38 -49 0
-7 -18 -38 -54 0
-7 -18 -38 -62 0
-7 -18 -49 -54 0
-7 -18 -49 -62 0
-7 -18 -54 -62 0
-7 -23 -31 -38 0
-7 -23 -31 -49 0
-7 -23 -31 -54 0
-7 -23 -31 -62 0
-7 -23 -38 -49 0
-7 -23 -38 -54 0
-7 -23 -38 -62 0
-7 -23 -49 -54 0
-7 -23 -49 -62 0
-7 -23 -54 -62 0
-7 -31 -38 -49 0
-7 -31 -38 -54 0
-7 -31 -38 -62 0
-7 -31 -49 -54 0
-7 -31 -49 -62 0
-7 -31 -54 -62 0
-7 -38 -49 -54 0
-7 -38 -49 -62 0
-7 -38 -54 -62 0
-7 -49 -54 -62 0
-13 -18 -23 -31 0
-13 -18 -23 -38 0
-13 -18 -23 -49 0
-13 -18 -23 -54 0
-13 -18 -23 -62 0
-13 -18 -31 -38 0
-13 -18 -31 -49 0
-13 -18 -31 -54 0
-13 -18 -31 -62 0
-13 -18 -38 -49 0
-13 -18 -38 -54 0
-13 -18 -38 -62 0
-13 -18 -49 -54 0
-13 -18 -49 -62 0
-13 -18 -54 -62 0
-13 -23 -31 -38 0
-13 -23 -31 -49 0
-13 -23 -31 -54 0
-13 -23 -31 -62 0
-13 -23 -38 -49 0
-13 -23 -38 -54 0
-13 -23 -38 -62 0
-13 -23 -49 -54 0
-13 -23 -49 -62 0
-13 -23 -54 -62 0
-13 -31 -38 -49 0
-13 -31 -38 -54 0
-13 -31 -38 -62 0
-13 -31 -49 -54 0
-13 -31 -49 -62 0
-13 -31 -54 -62 0
-13 -38 -49 -54 0
-13 -38 -49 -62 0
-13 -38 -54 -62 0
-13 -49 -54 -62 0
-18 -23 -31 -38 0
-18 -23 -31 -49 0
-18 -23 -31 -54 0
-18 -23 -31 -62 0
-18 -23 -38 -49 0
-18 -23 -38 -54 0
-18 -23 -38 -62 0
-18 -23 -49 -54 0
-18 -23 -49 -62 0
-18 -23 -54 -62 0
-18 -31 -38 -49 0
-18 -31 -38 -54 0
-18 -31 -38 -62 0
-18 -31 -49 -54 0
-18 -31 -49 -62 0
-18 -31 -54 -62 0
-18 -38 -49 -54 0
-18 -38 -49 -62 0
-18 -38 -54 -62 0
-18 -49 -54 -62 0
-23 -31 -38 -49 0
-23 -31 -38 -54 0
-23 -31 -38 -62 0
-23 -31 -49 -54 0
-23 -31 -49 -62 0
-23 -31 -54 -62 0
-23 -38 -49 -54 0
-23 -38 -49 -62 0
-23 -38 -54 -62 0
-23 -49 -54 -62 0
-31 -38 -49 -54 0
-31 -38 -49 -62 0
-31 -38 -54 -62 0
-31 -49 -54 -62 0
-38 -49 -54 -62 0
-3 -9 -21 -27 0
-3 -9 -21 -30 0
-3 -9 -21 -38 0
-3 -9 -21 -46 0
-3 -9 -21 -55 0
-3 -9 -21 -60 0
-3 -9 -27 -30 0
-3 -9 -27 -38 0
-3 -9 -27 -46 0
-3 -9 -27 -55 0
-3 -9 -27 -60 0
-3 -9 -30 -38 0
-3 -9 -30 -46 0
-3 -9 -30 -55 0
-3 -9 -30 -60 0
-3 -9 -38 -46 0
-3 -9 -38 -55 0
-3 -9 -38 -60 0
-3 -9 -46 -55 0
-3 -9 -46 -60 0
-3 -9 -55 -60 0
-3 -21 -27 -30 0
-3 -21 -27 -38 0
-3 -21 -27 -46 0
-3 -21 -27 -55 0
-3 -21 -27 -60 0
-3 -21 -30 -38 0
-3 -21 -30 -46 0
-3 -21 -30 -55 0
-3 -21 -30 -60 0
-3 -21 -38 -46 0
-3 -21 -38 -55 0
-3 -21 -38 -60 0
-3 -21 -46 -55 0
-3 -21 -46 -60 0
-3 -21 -55 -60 0
-3 -27 -30 -38 0
-3 -27 -30 -46 0
-3 -27 -30 -55 0
-3 -27 -30 -60 0
-3 -27 -38 -46 0
-3 -27 -38 -55 0
-3 -27 -38 -60 0
-3 -27 -46 -55 0
-3 -27 -46 -60 0
-3 -27 -55 -60 0
-3 -30 -38 -46 0
-3 -30 -38 -55 0
-3 -30 -38 -60 0
-3 -30 -46 -55 0
-3 -30 -46 -60 0
-3 -30 -55 -60 0
-3 -38 -46 -55 0
-3 -38 -46 -60 0
-3 -38 -55 -60 0
-3 -46 -55 -60 0
-9 -21 -27 -30 0
-9 -21 -27 -38 0
-9 -21 -27 -46 0
-9 -21 -27 -55 0
-9 -21 -27 -60 0
-9 -21 -30 -38 0
-9 -21 -30 -46 0
-9 -21 -30 -55 0
-9 -21 -30 -60 0
-9 -21 -38 -46 0
-9 -21 -38 -55 0
-9 -21 -38 -60 0
-9 -21 -46 -55 0
-9 -21 -46 -60 0
-9 -21 -55 -60 0
-9 -27 -30 -38 0
-9 -27 -30 -46 0
-9 -27 -30 -55 0
-9 -27 -30 -60 0
-9 -27 -38 -46 0
-9 -27 -38 -55 0
-9 -27 -38 -60 0
-9 -27 -46 -55 0
-9 -27 -46 -60 0
-9 -27 -55 -60 0
-9 -30 -38 -46 0
-9 -30 -38 -55 0
-9 -30 -38 -60 0
-9 -30 -46 -55 0
-9 -30 -46 -60 0
-9 -30 -55 -60 0
-9 -38 -46 -55 0
-9 -38 -46 -60 0
-9 -38 -55 -60 0
-9 -46 -55 -60 0
-21 -27 -30 -38 0
-21 -27 -30 -46 0
-21 -27 -30 -55 0
-21 -27 -30 -60 0
-21 -27 -38 -46 0
-21 -27 -38 -55 0
-21 -27 -38 -60 0
-21 -27 -46 -55 0
-21 -27 -46 -60 0
-21 -27 -55 -60 0
-21 -30 -38 -46 0
-21 -30 -38 -55 0
-21 -30 -38 -60 0
-21 -30 -46 -55 0
-21 -30 -46 -60 0
-21 -30 -55 -60 0
-21 -38 -46 -55 0
-21 -38 -46 -60 0
-21 -38 -55 -60 0
-21 -46 -55 -60 0
-27 -30 -38 -46 0
-27 -30 -38 -55 0
-27 -30 -38 -60 0
-27 -30 -46 -55 0
-27 -30 -46 -60 0
-27 -30 -55 -60 0
-27 -38 -46 -55 0
-27 -38 -46 -60 0
-27 -38 -55 -60 0
-27 -46 -55 -60 0
-30 -38 -46 -55 0
-30 -38 -46 -60 0
-30 -38 -55 -60 0
-30 -46 -55 -60 0
-38 -46 -55 -60 0
-1 -14 -17 -28 0
-1 -14 -17 -32 0
-1 -14 -17 -36 0
-1 -14 -17 -43 0
-1 -14 -17 -53 0
-1 -14 -17 -57 0
-1 -14 -28 -32 0
-1 -14 -28 -36 0
-1 -14 -28 -43 0
-1 -14 -28 -53 0
-1 -14 -28 -57 0
-1 -14 -32 -36 0
-1 -14 -32 -43 0
-1 -14 -32 -53 0
-1 -14 -32 -57 0
-1 -14 -36 -43 0
-1 -14 -36 -53 0
-1 -14 -36 -57 0
-1 -14 -43 -53 0
-1 -14 -43 -57 0
-1 -14 -53 -57 0
-1 -17 -28 -32 0
-1 -17 -28 -36 0
-1 -17 -28 -43 0
-1 -17 -28 -53 0
-1 -17 -28 -57 0
-1 -17 -32 -36 0
-1 -17 -32 -43 0
-1 -17 -32 -53 0
-1 -17 -32 -57 0
-1 -17 -36 -43 0
-1 -17 -36 -53 0
-1 -17 -36 -57 0
-1 -17 -43 -53 0
-1 -17 -43 -57 0
-1 -17 -53 -57 0
-1 -28 -32 -36 0
-1 -28 -32 -43 0
-1 -28 -32 -53 0
-1 -28 -32 -57 0
-1 -28 -36 -43 0
-1 -28 -36 -53 0
-1 -28 -36 -57 0
-1 -28 -43 -53 0
-1 -28 -43 -57 0
-1 -28 -53 -57 0
-1 -32 -36 -43 0
-1 -32 -36 -53 0
-1 -32 -36 -57 0
-1 -32 -43 -53 0
-1 -32 -43 -57 0
-1 -32 -53 -57 0
-1 -36 -43 -53 0
-1 -36 -43 -57 0
-1 -36 -53 -57 0
-1 -43 -53 -57 0
-14 -17 -28 -32 0
-14 -17 -28 -36 0
-14 -17 -28 -43 0
-14 -17 -28 -53 0
-14 -17 -28 -57 0
-14 -17 -32 -36 0
-14 -17 -32 -43 0
-14 -17 -32 -53 0
-14 -17 -32 -57 0
-14 -17 -36 -43 0
-14 -17 -36 -53 0
-14 -17 -36 -57 0
-14 -17 -43 -53 0
-14 -17 -43 -57 0
-14 -17 -53 -57 0
-14 -28 -32 -36 0
-14 -28 -32 -43 0
-14 -28 -32 -53 0
-14 -28 -32 -57 0
-14 -28 -36 -43 0
-14 -28 -36 -53 0
-14 -28 -36 -57 0
-14 -28 -43 -53 0
-14 -28 -43 -57 0
-14 -28 -53 -57 0
-14 -32 -36 -43 0
-14 -32 -36 -53 0
-14 -32 -36 -57 0
-14 -32 -43 -53 0
-14 -32 -43 -57 0
-14 -32 -53 -57 0
-14 -36 -43 -53 0
-14 -36 -43 -57 0
-14 -36 -53 -57 0
-14 -43 -53 -57 0
-17 -28 -32 -36 0
-17 -28 -32 -43 0
-17 -28 -32 -53 0
-17 -28 -32 -57 0
-17 -28 -36 -43 0
-17 -28 -36 -53 0
-17 -28 -36 -57 0
-17 -28 -43 -53 0
-17 -28 -43 -57 0
-17 -28 -53 -57 0
-17 -32 -36 -43 0
-17 -32 -36 -53 0
-17 -32 -36 -57 0
-17 -32 -43 -53 0
-17 -32 -43 -57 0
-17 -32 -53 -57 0
-17 -36 -43 -53 0
-17 -36 -43 -57 0
-17 -36 -53 -57 0
-17 -43 -53 -57 0
-28 -32 -36 -43 0
-28 -32 -36 -53 0
-28 -32 -36 -57 0
-28 -32 -43 -53 0
-28 -32 -43 -57 0
-28 -32 -53 -57 0
-28 -36 -43 -53 0
-28 -36 -43 -57 0
-28 -36 -53 -57 0
-28 -43 -53 -57 0
-32 -36 -43 -53 0
-32 -36 -43 -57 0
-32 -36 -53 -57 0
-32 -43 -53 -57 0
-36 -43 -53 -57 0
-7 -14 -18 -24 0
-7 -14 -18 -29 0
-7 -14 -18 -36 0
-7 -14 -18 -43 0
-7 -14 -18 -52 0
-7 -14 -18 -63 0
-7 -14 -24 -29 0
-7 -14 -24 -36 0
-7 -14 -24 -43 0
-7 -14 -24 -52 0
-7 -14 -24 -63 0
-7 -14 -29 -36 0
-7 -14 -29 -43 0
-7 -14 -29 -52 0
-7 -14 -29 -63 0
-7 -14 -36 -43 0
-7 -14 -36 -52 0
-7 -14 -36 -63 0
-7 -14 -43 -52 0
-7 -14 -43 -63 0
-7 -14 -52 -63 0
-7 -18 -24 -29 0
-7 -18 -24 -36 0
-7 -18 -24 -43 0
-7 -18 -24 -52 0
-7 -18 -24 -63 0
-7 -18 -29 -36 0
-7 -18 -29 -43 0
-7 -18 -29 -52 0
-7 -18 -29 -63 0
-7 -18 -36 -43 0
-7 -18 -36 -52 0
-7 -18 -36 -63 0
-7 -18 -43 -52 0
-7 -18 -43 -63 0
-7 -18 -52 -63 0
-7 -24 -29 -36 0
-7 -24 -29 -43 0
-7 -24 -29 -52 0
-7 -24 -29 -63 0
-7 -24 -36 -43 0
-7 -24 -36 -52 0
-7 -24 -36 -63 0
-7 -24 -43 -52 0
-7 -24 -43 -63 0
-7 -24 -52 -63 0
-7 -29 -36 -43 0
-7 -29 -36 -52 0
-7 -29 -36 -63 0
-7 -29 -43 -52 0
-7 -29 -43 -63 0
-7 -29 -52 -63 0
-7 -36 -43 -52 0
-7 -36 -43 -63 0
-7 -36 -52 -63 0
-7 -43 -52 -63 0
-14 -18 -24 -29 0
-14 -18 -24 -36 0
-14 -18 -24 -43 0
-14 -18 -24 -52 0
-14 -18 -24 -63 0
-14 -18 -29 -36 0
-14 -18 -29 -43 0
-14 -18 -29 -52 0
-14 -18 -29 -63 0
-14 -18 -36 -43 0
-14 -18 -36 -52 0
-14 -18 -36 -63 0
-14 -18 -43 -52 0
-14 -18 -43 -63 0
-14 -18 -52 -63 0
-14 -24 -29 -36 0
-14 -24 -29 -43 0
-14 -24 -29 -52 0
-14 -24 -29 -63 0
-14 -24 -36 -43 0
-14 -24 -36 -52 0
-14 -24 -36 -63 0
-14 -24 -43 -52 0
-14 -24 -43 -63 0
-14 -24 -52 -63 0
-14 -29 -36 -43 0
-14 -29 -36 -52 0
-14 -29 -36 -63 0
-14 -29 -43 -52 0
-14 -29 -43 -63 0
-14 -29 -52 -63 0
-14 -36 -43 -52 0
-14 -36 -43 -63 0
-14 -36 -52 -63 0
-14 -43 -52 -63 0
-18 -24 -29 -36 0
-18 -24 -29 -43 0
-18 -24 -29 -52 0
-18 -24 -29 -63 0
-18 -24 -36 -43 0
-18 -24 -36 -52 0
-18 -24 -36 -63 0
-18 -24 -43 -52 0
-18 -24 -43 -63 0
-18 -24 -52 -63 0
-18 -29 -36 -43 0
-18 -29 -36 -52 0
-18 -29 -36 -63 0
-18 -29 -43 -52 0
-18 -29 -43 -63 0
-18 -29 -52 -63 0
-18 -36 -43 -52 0
-18 -36 -43 -63 0
-18 -36 -52 -63 0
-18 -43 -52 -63 0
-24 -29 -36 -43 0
-24 -29 -36 -52 0
-24 -29 -36 -63 0
-24 -29 -43 -52 0
-24 -29 -43 -63 0
-24 -29 -52 -63 0
-24 -36 -43 -52 0
-24 -36 -43 -63 0
-24 -36 -52 -63 0
-24 -43 -52 -63 0
-29 -36 -43 -52 0
-29 -36 -43 -63 0
-29 -36 -52 -63 0
-29 -43 -52 -63 0
-36 -43 -52 -63 0
-3 -13 -20 -24 0
-3 -13 -20 -31 0
-3 -13 -20 -39 0
-3 -13 -20 -44 0
-3 -13 -20 -52 0
-3 -13 -20 -57 0
-3 -13 -24 -31 0
-3 -13 -24 -39 0
-3 -13 -24 -44 0
-3 -13 -24 -52 0
-3 -13 -24 -57 0
-3 -13 -31 -39 0
-3 -13 -31 -44 0
-3 -13 -31 -52 0
-3 -13 -31 -57 0
-3 -13 -39 -44 0
-3 -13 -39 -52 0
-3 -13 -39 -57 0
-3 -13 -44 -52 0
-3 -13 -44 -57 0
-3 -13 -52 -57 0
-3 -20 -24 -31 0
-3 -20 -24 -39 0
-3 -20 -24 -44 0
-3 -20 -24 -52 0
-3 -20 -24 -57 0
-3 -20 -31 -39 0
-3 -20 -31 -44 0
-3 -20 -31 -52 0
-3 -20 -31 -57 0
-3 -20 -39 -44 0
-3 -20 -39 -52 0
-3 -20 -39 -57 0
-3 -20 -44 -52 0
-3 -20 -44 -57 0
-3 -20 -52 -57 0
-3 -24 -31 -39 0
-3 -24 -31 -44 0
-3 -24 -31 -52 0
-3 -24 -31 -57 0
-3 -24 -39 -44 0
-3 -24 -39 -52 0
-3 -24 -39 -57 0
-3 -24 -44 -52 0
-3 -24 -44 -57 0
-3 -24 -52 -57 0
-3 -31 -39 -44 0
-3 -31 -39 -52 0
-3 -31 -39 -57 0
-3 -31 -44 -52 0
-3 -31 -44 -57 0
-3 -31 -52 -57 0
-3 -39 -44 -52 0
-3 -39 -44 -57 0
-3 -39 -52 -57 0
-3 -44 -52 -57 0
-13 -20 -24 -31 0
-13 -20 -24 -39 0
-13 -20 -24 -44 0
-13 -20 -24 -52 0
-13 -20 -24 -57 0
-13 -20 -31 -39 0
-13 -20 -31 -44 0
-13 -20 -31 -52 0
-13 -20 -31 -57 0
-13 -20 -39 -44 0
-13 -20 -39 -52 0
-13 -20 -39 -57 0
-13 -20 -44 -52 0
-13 -20 -44 -57 0
-13 -20 -52 -57 0
-13 -24 -31 -39 0
-13 -24 -31 -44 0
-13 -24 -31 -52 0
-13 -24 -31 -57 0
-13 -24 -39 -44 0
-13 -24 -39 -52 0
-13 -24 -39 -57 0
-13 -24 -44 -52 0
-13 -24 -44 -57 0
-13 -24 -52 -57 0
-13 -31 -39 -44 0
-13 -31 -39 -52 0
-13 -31 -39 -57 0
-13 -31 -44 -52 0
-13 -31 -44 -57 0
-13 -31 -52 -57 0
-13 -39 -44 -52 0
-13 -39 -44 -57 0
-13 -39 -52 -57 0
-13 -44 -52 -57 0
-20 -24 -31 -39 0
-20 -24 -31 -44 0
-20 -24 -31 -52 0
-20 -24 -31 -57 0
-20 -24 -39 -44 0
-20 -24 -39 -52 0
-20 -24 -39 -57 0
-20 -24 -44 -52 0
-20 -24 -44 -57 0
-20 -24 -52 -57 0
-20 -31 -39 -44 0
-20 -31 -39 -52 0
-20 -31 -39 -57 0
-20 -31 -44 -52 0
-20 -31 -44 -57 0
-20 -31 -52 -57 0
-20 -39 -44 -52 0
-20 -39 -44 -57 0
-20 -39 -52 -57 0
-20 -44 -52 -57 0
-24 -31 -39 -44 0
-24 -31 -39 -52 0
-24 -31 -39 -57 0
-24 -31 -44 -52 0
-24 -31 -44 -57 0
-24 -31 -52 -57 0
-24 -39 -44 -52 0
-24 -39 -44 -57 0
-24 -39 -52 -57 0
-24 -44 -52 -57 0
-31 -39 -44 -52 0
-31 -39 -44 -57 0
-31 -39 -52 -57 0
-31 -44 -52 -57 0
-39 -44 -52 -57 0
-6 -14 -15 -24 0
-6 -14 -15 -35 0
-6 -14 -15 -39 0
-6 -14 -15 -43 0
-6 -14 -15 -53 0
-6 -14 -15 -62 0
-6 -14 -24 -35 0
-6 -14 -24 -39 0
-6 -14 -24 -43 0
-6 -14 -24 -53 0
-6 -14 -24 -62 0
-6 -14 -35 -39 0
-6 -14 -35 -43 0
-6 -14 -35 -53 0
-6 -14 -35 -62 0
-6 -14 -39 -43 0
-6 -14 -39 -53 0
-6 -14 -39 -62 0
-6 -14 -43 -53 0
-6 -14 -43 -62 0
-6 -14 -53 -62 0
-6 -15 -24 -35 0
-6 -15 -24 -39 0
-6 -15 -24 -43 0
-6 -15 -24 -53 0
-6 -15 -24 -62 0
-6 -15 -35 -39 0
-6 -15 -35 -43 0
-6 -15 -35 -53 0
-6 -15 -35 -62 0
-6 -15 -39 -43 0
-6 -15 -39 -53 0
-6 -15 -39 -62 0
-6 -15 -43 -53 0
-6 -15 -43 -62 0
-6 -15 -53 -62 0
-6 -24 -35 -39 0
-6 -24 -35 -43 0
-6 -24 -35 -53 0
-6 -24 -35 -62 0
-6 -24 -39 -43 0
-6 -24 -39 -53 0
-6 -24 -39 -62 0
-6 -24 -43 -53 0
-6 -24 -43 -62 0
-6 -24 -53 -62 0
-6 -35 -39 -43 0
-6 -35 -39 -53 0
-6 -35 -39 -62 0
-6 -35 -43 -53 0
-6 -35 -43 -62 0
-6 -35 -53 -62 0
-6 -39 -43 -53 0
-6 -39 -43 -62 0
-6 -39 -53 -62 0
-6 -43 -53 -62 0
-14 -15 -24 -35 0
-14 -15 -24 -39 0
-14 -15 -24 -43 0
-14 -15 -24 -53 0
-14 -15 -24 -62 0
-14 -15 -35 -39 0
-14 -15 -35 -43 0
-14 -15 -35 -53 0
-14 -15 -35 -62 0
-14 -15 -39 -43 0
-14 -15 -39 -53 0
-14 -15 -39 -62 0
-14 -15 -43 -53 0
-14 -15 -43 -62 0
-14 -15 -53 -62 0
-14 -24 -35 -39 0
-14 -24 -35 -43 0
-14 -24 -35 -53 0
-14 -24 -35 -62 0
-14 -24 -39 -43 0
-14 -24 -39 -53 0
-14 -24 -39 -62 0
-14 -24 -43 -53 0
-14 -24 -43 -62 0
-14 -24 -53 -62 0
-14 -35 -39 -43 0
-14 -35 -39 -53 0
-14 -35 -39 -62 0
-14 -35 -43 -53 0
-14 -35 -43 -62 0
-14 -35 -53 -62 0
-14 -39 -43 -53 0
-14 -39 -43 -62 0
-14 -39 -53 -62 0
-14 -43 -53 -62 0
-15 -24 -35 -39 0
-15 -24 -35 -43 0
-15 -24 -35 -53 0
-15 -24 -35 -62 0
-15 -24 -39 -43 0
-15 -24 -39 -53 0
-15 -24 -39 -62 0
-15 -24 -43 -53 0
-15 -24 -43 -62 0
-15 -24 -53 -62 0
-15 -35 -39 -43 0
-15 -35 -39 -53 0
-15 -35 -39 -62 0
-15 -35 -43 -53 0
-15 -35 -43 -62 0
-15 -35 -53 -62 0
-15 -39 -43 -53 0
-15 -39 -43 -62 0
-15 -39 -53 -62 0
-15 -43 -53 -62 0
-24 -35 -39 -43 0
-24 -35 -39 -53 0
-24 -35 -39 -62 0
-24 -35 -43 -53 0
-24 -35 -43 -62 0
-24 -35 -53 -62 0
-24 -39 -43 -53 0
-24 -39 -43 -62 0
-24 -39 -53 -62 0
-24 -43 -53 -62 0
-35 -39 -43 -53 0
-35 -39 -43 -62 0
-35 -39 -53 -62 0
-35 -43 -53 -62 0
-39 -43 -53 -62 0
-6 -14 -15 -27 0
-6 -14 -15 -29 0
-6 -14 -15 -38 0
-6 -14 -15 -48 0
-6 -14 -15 -56 0
-6 -14 -15 -61 0
-6 -14 -27 -29 0
-6 -14 -27 -38 0
-6 -14 -27 -48 0
-6 -14 -27 -56 0
-6 -14 -27 -61 0
-6 -14 -29 -38 0
-6 -14 -29 -48 0
-6 -14 -29 -56 0
-6 -14 -29 -61 0
-6 -14 -38 -48 0
-6 -14 -38 -56 0
-6 -14 -38 -61 0
-6 -14 -48 -56 0
-6 -14 -48 -61 0
-6 -14 -56 -61 0
-6 -15 -27 -29 0
-6 -15 -27 -38 0
-6 -15 -27 -48 0
-6 -15 -27 -56 0
-6 -15 -27 -61 0
-6 -15 -29 -38 0
-6 -15 -29 -48 0
-6 -15 -29 -56 0
-6 -15 -29 -61 0
-6 -15 -38 -48 0
-6 -15 -38 -56 0
-6 -15 -38 -61 0
-6 -15 -48 -56 0
-6 -15 -48 -61 0
-6 -15 -56 -61 0
-6 -27 -29 -38 0
-6 -27 -29 -48 0
-6 -27 -29 -56 0
-6 -27 -29 -61 0
-6 -27 -38 -48 0
-6 -27 -38 -56 0
-6 -27 -38 -61 0
-6 -27 -48 -56 0
-6 -27 -48 -61 0
-6 -27 -56 -61 0
-6 -29 -38 -48 0
-6 -29 -38 -56 0
-6 -29 -38 -61 0
-6 -29 -48 -56 0
-6 -29 -48 -61 0
-6 -29 -56 -61 0
-6 -38 -48 -56 0
-6 -38 -48 -61 0
-6 -38 -56 -61 0
-6 -48 -56 -61 0
-14 -15 -27 -29 0
-14 -15 -27 -38 0
-14 -15 -27 -48 0
-14 -15 -27 -56 0
-14 -15 -27 -61 0
-14 -15 -29 -38 0
-14 -15 -29 -48 0
-14 -15 -29 -56 0
-14 -15 -29 -61 0
-14 -15 -38 -48 0
-14 -15 -38 -56 0
-14 -15 -38 -61 0
-14 -15 -48 -56 0
-14 -15 -48 -61 0
-14 -15 -56 -61 0
-14 -27 -29 -38 0
-14 -27 -29 -48 0
-14 -27 -29 -56 0
-14 -27 -29 -61 0
-14 -27 -38 -48 0
-14 -27 -38 -56 0
-14 -27 -38 -61 0
-14 -27 -48 -56 0
-14 -27 -48 -61 0
-14 -27 -56 -61 0
-14 -29 -38 -48 0
-14 -29 -38 -56 0
-14 -29 -38 -61 0
-14 -29 -48 -56 0
-14 -29 -48 -61 0
-14 -29 -56 -61 0
-14 -38 -48 -56 0
-14 -38 -48 -61 0
-14 -38 -56 -61 0
-14 -48 -56 -61 0
-15 -27 -29 -38 0
-15 -27 -29 -48 0
-15 -27 -29 -56 0
-15 -27 -29 -61 0
-15 -27 -38 -48 0
-15 -27 -38 -56 0
-15 -27 -38 -61 0
-15 -27 -48 -56 0
-15 -27 -48 -61 0
-15 -27 -56 -61 0
-15 -29 -38 -48 0
-15 -29 -38 -56 0
-15 -29 -38 -61 0
-15 -29 -48 -56 0
-15 -29 -48 -61 0
-15 -29 -56 -61 0
-15 -38 -48 -56 0
-15 -38 -48 -61 0
-15 -38 -56 -61 0
-15 -48 -56 -61 0
-27 -29 -38 -48 0
-27 -29 -38 -56 0
-27 -29 -38 -61 0
-27 -29 -48 -56 0
-27 -29 -48 -61 0
-27 -29 -56 -61 0
-27 -38 -48 -56 0
-27 -38 -48 -61 0
-27 -38 -56 -61 0
-27 -48 -56 -61 0
-29 -38 -48 -56 0
-29 -38 -48 -61 0
-29 -38 -56 -61 0
-29 -48 -56 -61 0
-38 -48 -56 -61 0
-1 -12 -21 -24 0
-1 -12 -21 -29 0
-1 -12 -21 -39 0
-1 -12 -21 -48 0
-1 -12 -21 -56 0
-1 -12 -21 -59 0
-1 -12 -24 -29 0
-1 -12 -24 -39 0
-1 -12 -24 -48 0
-1 -12 -24 -56 0
-1 -12 -24 -59 0
-1 -12 -29 -39 0
-1 -12 -29 -48 0
-1 -12 -29 -56 0
-1 -12 -29 -59 0
-1 -12 -39 -48 0
-1 -12 -39 -56 0
-1 -12 -39 -59 0
-1 -12 -48 -56 0
-1 -12 -48 -59 0
-1 -12 -56 -59 0
-1 -21 -24 -29 0
-1 -21 -24 -39 0
-1 -21 -24 -48 0
-1 -21 -24 -56 0
-1 -21 -24 -59 0
-1 -21 -29 -39 0
-1 -21 -29 -48 0
-1 -21 -29 -56 0
-1 -21 -29 -59 0
-1 -21 -39 -48 0
-1 -21 -39 -56 0
-1 -21 -39 -59 0
-1 -21 -48 -56 0
-1 -21 -48 -59 0
-1 -21 -56 -59 0
-1 -24 -29 -39 0
-1 -24 -29 -48 0
-1 -24 -29 -56 0
-1 -24 -29 -59 0
-1 -24 -39 -48 0
-1 -24 -39 -56 0
-1 -24 -39 -59 0
-1 -24 -48 -56 0
-1 -24 -48 -59 0
-1 -24 -56 -59 0
-1 -29 -39 -48 0
-1 -29 -39 -56 0
-1 -29 -39 -59 0
-1 -29 -48 -56 0
-1 -29 -48 -59 0
-1 -29 -56 -59 0
-1 -39 -48 -56 0
-1 -39 -48 -59 0
-1 -39 -56 -59 0
-1 -48 -56 -59 0
-12 -21 -24 -29 0
-12 -21 -24 -39 0
-12 -21 -24 -48 0
-12 -21 -24 -56 0
-12 -21 -24 -59 0
-12 -21 -29 -39 0
-12 -21 -29 -48 0
-12 -21 -29 -56 0
-12 -21 -29 -59 0
-12 -21 -39 -48 0
-12 -21 -39 -56 0
-12 -21 -39 -59 0
-12 -21 -48 -56 0
-12 -21 -48 -59 0
-12 -21 -56 -59 0
-12 -24 -29 -39 0
-12 -24 -29 -48 0
-12 -24 -29 -56 0
-12 -24 -29 -59 0
-12 -24 -39 -48 0
-12 -24 -39 -56 0
-12 -24 -39 -59 0
-12 -24 -48 -56 0
-12 -24 -48 -59 0
-12 -24 -56 -59 0
-12 -29 -39 -48 0
-12 -29 -39 -56 0
-12 -29 -39 -59 0
-12 -29 -48 -56 0
-12 -29 -48 -59 0
-12 -29 -56 -59 0
-12 -39 -48 -56 0
-12 -39 -48 -59 0
-12 -39 -56 -59 0
-12 -48 -56 -59 0
-21 -24 -29 -39 0
-21 -24 -29 -48 0
-21 -24 -29 -56 0
-21 -24 -29 -59 0
-21 -24 -39 -48 0
-21 -24 -39 -56 0
-21 -24 -39 -59 0
-21 -24 -48 -56 0
-21 -24 -48 -59 0
-21 -24 -56 -59 0
-21 -29 -39 -48 0
-21 -29 -39 -56 0
-21 -29 -39 -59 0
-21 -29 -48 -56 0
-21 -29 -48 -59 0
-21 -29 -56 -59 0
-21 -39 -48 -56 0
-21 -39 -48 -59 0
-21 -39 -56 -59 0
-21 -48 -56 -59 0
-24 -29 -39 -48 0
-24 -29 -39 -56 0
-24 -29 -39 -59 0
-24 -29 -48 -56 0
-24 -29 -48 -59 0
-24 -29 -56 -59 0
-24 -39 -48 -56 0
-24 -39 -48 -59 0
-24 -39 -56 -59 0
-24 -48 -56 -59 0
-29 -39 -48 -56 0
-29 -39 -48 -59 0
-29 -39 -56 -59 0
-29 -48 -56 -59 0
-39 -48 -56 -59 0
-2 -14 -21 -25 0
-2 -14 -21 -35 0
-2 -14 -21 -40 0
-2 -14 -21 -46 0
-2 -14 -21 -52 0
-2 -14 -21 -61 0
-2 -14 -25 -35 0
-2 -14 -25 -40 0
-2 -14 -25 -46 0
-2 -14 -25 -52 0
-2 -14 -25 -61 0
-2 -14 -35 -40 0
-2 -14 -35 -46 0
-2 -14 -35 -52 0
-2 -14 -35 -61 0
-2 -14 -40 -46 0
-2 -14 -40 -52 0
-2 -14 -40 -61 0
-2 -14 -46 -52 0
-2 -14 -46 -61 0
-2 -14 -52 -61 0
-2 -21 -25 -35 0
-2 -21 -25 -40 0
-2 -21 -25 -46 0
-2 -21 -25 -52 0
-2 -21 -25 -61 0
-2 -21 -35 -40 0
-2 -21 -35 -46 0
-2 -21 -35 -52 0
-2 -21 -35 -61 0
-2 -21 -40 -46 0
-2 -21 -40 -52 0
-2 -21 -40 -61 0
-2 -21 -46 -52 0
-2 -21 -46 -61 0
-2 -21 -52 -61 0
-2 -25 -35 -40 0
-2 -25 -35 -46 0
-2 -25 -35 -52 0
-2 -25 -35 -61 0
-2 -25 -40 -46 0
-2 -25 -40 -52 0
-2 -25 -40 -61 0
-2 -25 -46 -52 0
-2 -25 -46 -61 0
-2 -25 -52 -61 0
-2 -35 -40 -46 0
-2 -35 -40 -52 0
-2 -35 -40 -61 0
-2 -35 -46 -52 0
-2 -35 -46 -61 0
-2 -35 -52 -61 0
-2 -40 -46 -52 0
-2 -40 -46 -61 0
-2 -40 -52 -61 0
-2 -46 -52 -61 0
-14 -21 -25 -35 0
-14 -21 -25 -40 0
-14 -21 -25 -46 0
-14 -21 -25 -52 0
-14 -21 -25 -61 0
-14 -21 -35 -40 0
-14 -21 -35 -46 0
-14 -21 -35 -52 0
-14 -21 -35 -61 0
-14 -21 -40 -46 0
-14 -21 -40 -52 0
-14 -21 -40 -61 0
-14 -21 -46 -52 0
-14 -21 -46 -61 0
-14 -21 -52 -61 0
-14 -25 -35 -40 0
-14 -25 -35 -46 0
-14 -25 -35 -52 0
-14 -25 -35 -61 0
-14 -25 -40 -46 0
-14 -25 -40 -52 0
-14 -25 -40 -61 0
-14 -25 -46 -52 0
-14 -25 -46 -61 0
-14 -25 -52 -61 0
-14 -35 -40 -46 0
-14 -35 -40 -52 0
-14 -35 -40 -61 0
-14 -35 -46 -52 0
-14 -35 -46 -61 0
-14 -35 -52 -61 0
-14 -40 -46 -52 0
-14 -40 -46 -61 0
-14 -40 -52 -61 0
-14 -46 -52 -61 0
-21 -25 -35 -40 0
-21 -25 -35 -46 0
-21 -25 -35 -52 0
-21 -25 -35 -61 0
-21 -25 -40 -46 0
-21 -25 -40 -52 0
-21 -25 -40 -61 0
-21 -25 -46 -52 0
-21 -25 -46 -61 0
-21 -25 -52 -61 0
-21 -35 -40 -46 0
-21 -35 -40 -52 0
-21 -35 -40 -61 0
-21 -35 -46 -52 0
-21 -35 -46 -61 0
-21 -35 -52 -61 0
-21 -40 -46 -52 0
-21 -40 -46 -61 0
-21 -40 -52 -61 0
-21 -46 -52 -61 0
-25 -35 -40 -46 0
-25 -35 -40 -52 0
-25 -35 -40 -61 0
-25 -35 -46 -52 0
-25 -35 -46 -61 0
-25 -35 -52 -61 0
-25 -40 -46 -52 0
-25 -40 -46 -61 0
-25 -40 -52 -61 0
-25 -46 -52 -61 0
-35 -40 -46 -52 0
-35 -40 -46 -61 0
-35 -40 -52 -61 0
-35 -46 -52 -61 0
-40 -46 -52 -61 0
-1 -11 -16 -24 0
-1 -11 -16 -30 0
-1 -11 -16 -38 0
-1 -11 -16 -48 0
-1 -11 -16 -56 0
-1 -11 -16 -58 0
-1 -11 -24 -30 0
-1 -11 -24 -38 0
-1 -11 -24 -48 0
-1 -11 -24 -56 0
-1 -11 -24 -58 0
-1 -11 -30 -38 0
-1 -11 -30 -48 0
-1 -11 -30 -56 0
-1 -11 -30 -58 0
-1 -11 -38 -48 0
-1 -11 -38 -56 0
-1 -11 -38 -58 0
-1 -11 -48 -56 0
-1 -11 -48 -58 0
-1 -11 -56 -58 0
-1 -16 -24 -30 0
-1 -16 -24 -38 0
-1 -16 -24 -48 0
-1 -16 -24 -56 0
-1 -16 -24 -58 0
-1 -16 -30 -38 0
-1 -16 -30 -48 0
-1 -16 -30 -56 0
-1 -16 -30 -58 0
-1 -16 -38 -48 0
-1 -16 -38 -56 0
-1 -16 -38 -58 0
-1 -16 -48 -56 0
-1 -16 -48 -58 0
-1 -16 -56 -58 0
-1 -24 -30 -38 0
-1 -24 -30 -48 0
-1 -24 -30 -56 0
-1 -24 -30 -58 0
-1 -24 -38 -48 0
-1 -24 -38 -56 0
-1 -24 -38 -58 0
-1 -24 -48 -56 0
-1 -24 -48 -58 0
-1 -24 -56 -58 0
-1 -30 -38 -48 0
-1 -30 -38 -56 0
-1 -30 -38 -58 0
-1 -30 -48 -56 0
-1 -30 -48 -58 0
-1 -30 -56 -58 0
-1 -38 -48 -56 0
-1 -38 -48 -58 0
-1 -38 -56 -58 0
-1 -48 -56 -58 0
-11 -16 -24 -30 0
-11 -16 -24 -38 0
-11 -16 -24 -48 0
-11 -16 -24 -56 0
-11 -16 -24 -58 0
-11 -16 -30 -38 0
-11 -16 -30 -48 0
-11 -16 -30 -56 0
-11 -16 -30 -58 0
-11 -16 -38 -48 0
-11 -16 -38 -56 0
-11 -16 -38 -58 0
-11 -16 -48 -56 0
-11 -16 -48 -58 0
-11 -16 -56 -58 0
-11 -24 -30 -38 0
-11 -24 -30 -48 0
-11 -24 -30 -56 0
-11 -24 -30 -58 0
-11 -24 -38 -48 0
-11 -24 -38 -56 0
-11 -24 -38 -58 0
-11 -24 -48 -56 0
-11 -24 -48 -58 0
-11 -24 -56 -58 0
-11 -30 -38 -48 0
-11 -30 -38 -56 0
-11 -30 -38 -58 0
-11 -30 -48 -56 0
-11 -30 -48 -58 0
-11 -30 -56 -58 0
-11 -38 -48 -56 0
-11 -38 -48 -58 0
-11 -38 -56 -58 0
-11 -48 -56 -58 0
-16 -24 -30 -38 0
-16 -24 -30 -48 0
-16 -24 -30 -56 0
-16 -24 -30 -58 0
-16 -24 -38 -48 0
-16 -24 -38 -56 0
-16 -24 -38 -58 0
-16 -24 -48 -56 0
-16 -24 -48 -58 0
-16 -24 -56 -58 0
-16 -30 -38 -48 0
-16 -30 -38 -56 0
-16 -30 -38 -58 0
-16 -30 -48 -56 0
-16 -30 -48 -58 0
-16 -30 -56 -58 0
-16 -38 -48 -56 0
-16 -38 -48 -58 0
-16 -38 -56 -58 0
-16 -48 -56 -58 0
-24 -30 -38 -48 0
-24 -30 -38 -56 0
-24 -30 -38 -58 0
-24 -30 -48 -56 0
-24 -30 -48 -58 0
-24 -30 -56 -58 0
-24 -38 -48 -56 0
-24 -38 -48 -58 0
-24 -38 -56 -58 0
-24 -48 -56 -58 0
-30 -38 -48 -56 0
-30 -38 -48 -58 0
-30 -38 -56 -58 0
-30 -48 -56 -58 0
-38 -48 -56 -58 0
-2 -10 -17 -27 0
-2 -10 -17 -34 0
-2 -10 -17 -41 0
-2 -10 -17 -47 0
-2 -10 -17 -52 0
-2 -10 -17 -57 0
-2 -10 -27 -34 0
-2 -10 -27 -41 0
-2 -10 -27 -47 0
-2 -10 -27 -52 0
-2 -10 -27 -57 0
-2 -10 -34 -41 0
-2 -10 -34 -47 0
-2 -10 -34 -52 0
-2 -10 -34 -57 0
-2 -10 -41 -47 0
-2 -10 -41 -52 0
-2 -10 -41 -57 0
-2 -10 -47 -52 0
-2 -10 -47 -57 0
-2 -10 -52 -57 0
-2 -17 -27 -34 0
-2 -17 -27 -41 0
-2 -17 -27 -47 0
-2 -17 -27 -52 0
-2 -17 -27 -57 0
-2 -17 -34 -41 0
-2 -17 -34 -47 0
-2 -17 -34 -52 0
-2 -17 -34 -57 0
-2 -17 -41 -47 0
-2 -17 -41 -52 0
-2 -17 -41 -57 0
-2 -17 -47 -52 0
-2 -17 -47 -57 0
-2 -17 -52 -57 0
-2 -27 -34 -41 0
-2 -27 -34 -47 0
-2 -27 -34 -52 0
-2 -27 -34 -57 0
-2 -27 -41 -47 0
-2 -27 -41 -52 0
-2 -27 -41 -57 0
-2 -27 -47 -52 0
-2 -27 -47 -57 0
-2 -27 -52 -57 0
-2 -34 -41 -47 0
-2 -34 -41 -52 0
-2 -34 -41 -57 0
-2 -34 -47 -52 0
-2 -34 -47 -57 0
-2 -34 -52 -57 0
-2 -41 -47 -52 0
-2 -41 -47 -57 0
-2 -41 -52 -57 0
-2 -47 -52 -57 0
-10 -17 -27 -34 0
-10 -17 -27 -41 0
-10 -17 -27 -47 0
-10 -17 -27 -52 0
-10 -17 -27 -57 0
-10 -17 -34 -41 0
-10 -17 -34 -47 0
-10 -17 -34 -52 0
-10 -17 -34 -57 0
-10 -17 -41 -47 0
-10 -17 -41 -52 0
-10 -17 -41 -57 0
-10 -17 -47 -52 0
-10 -17 -47 -57 0
-10 -17 -52 -57 0
-10 -27 -34 -41 0
-10 -27 -34 -47 0
-10 -27 -34 -52 0
-10 -27 -34 -57 0
-10 -27 -41 -47 0
-10 -27 -41 -52 0
-10 -27 -41 -57 0
-10 -27 -47 -52 0
-10 -27 -47 -57 0
-10 -27 -52 -57 0
-10 -34 -41 -47 0
-10 -34 -41 -52 0
-10 -34 -41 -57 0
-10 -34 -47 -52 0
-10 -34 -47 -57 0
-10 -34 -52 -57 0
-10 -41 -47 -52 0
-10 -41 -47 -57 0
-10 -41 -52 -57 0
-10 -47 -52 -57 0
-17 -27 -34 -41 0
-17 -27 -34 -47 0
-17 -27 -34 -52 0
-17 -27 -34 -57 0
-17 -27 -41 -47 0
-17 -27 -41 -52 0
-17 -27 -41 -57 0
-17 -27 -47 -52 0
-17 -27 -47 -57 0
-17 -27 -52 -57 0
-17 -34 -41 -47 0
-17 -34 -41 -52 0
-17 -34 -41 -57 0
-17 -34 -47 -52 0
-17 -34 -47 -57 0
-17 -34 -52 -57 0
-17 -41 -47 -52 0
-17 -41 -47 -57 0
-17 -41 -52 -57 0
-17 -47 -52 -57 0
-27 -34 -41 -47 0
-27 -34 -41 -52 0
-27 -34 -41 -57 0
-27 -34 -47 -52 0
-27 -34 -47 -57 0
-27 -34 -52 -57 0
-27 -41 -47 -52 0
-27 -41 -47 -57 0
-27 -41 -52 -57 0
-27 -47 -52 -57 0
-34 -41 -47 -52 0
-34 -41 -47 -57 0
-34 -41 -52 -57 0
-34 -47 -52 -57 0
-41 -47 -52 -57 0
-6 -8 -20 -22 0
-6 -8 -20 -33 0
-6 -8 -20 -37 0
-6 -8 -20 -43 0
-6 -8 -20 -52 0
-6 -8 -20 -60 0
-6 -8 -22 -33 0
-6 -8 -22 -37 0
-6 -8 -22 -43 0
-6 -8 -22 -52 0
-6 -8 -22 -60 0
-6 -8 -33 -37 0
-6 -8 -33 -43 0
-6 -8 -33 -52 0
-6 -8 -33 -60 0
-6 -8 -37 -43 0
-6 -8 -37 -52 0
-6 -8 -37 -60 0
-6 -8 -43 -52 0
-6 -8 -43 -60 0
-6 -8 -52 -60 0
-6 -20 -22 -33 0
-6 -20 -22 -37 0
-6 -20 -22 -43 0
-6 -20 -22 -52 0
-6 -20 -22 -60 0
-6 -20 -33 -37 0
-6 -20 -33 -43 0
-6 -20 -33 -52 0
-6 -20 -33 -60 0
-6 -20 -37 -43 0
-6 -20 -37 -52 0
-6 -20 -37 -60 0
-6 -20 -43 -52 0
-6 -20 -43 -60 0
-6 -20 -52 -60 0
-6 -22 -33 -37 0
-6 -22 -33 -43 0
-6 -22 -33 -52 0
-6 -22 -33 -60 0
-6 -22 -37 -43 0
-6 -22 -37 -52 0
-6 -22 -37 -60 0
-6 -22 -43 -52 0
-6 -22 -43 -60 0
-6 -22 -52 -60 0
-6 -33 -37 -43 0
-6 -33 -37 -52 0
-6 -33 -37 -60 0
-6 -33 -43 -52 0
-6 -33 -43 -60 0
-6 -33 -52 -60 0
-6 -37 -43 -52 0
-6 -37 -43 -60 0
-6 -37 -52 -60 0
-6 -43 -52 -60 0
-8 -20 -22 -33 0
-8 -20 -22 -37 0
-8 -20 -22 -43 0
-8 -20 -22 -52 0
-8 -20 -22 -60 0
-8 -20 -33 -37 0
-8 -20 -33 -43 0
-8 -20 -33 -52 0
-8 -20 -33 -60 0
-8 -20 -37 -43 0
-8 -20 -37 -52 0
-8 -20 -37 -60 0
-8 -20 -43 -52 0
-8 -20 -43 -60 0
-8 -20 -52 -60 0
-8 -22 -33 -37 0
-8 -22 -33 -43 0
-8 -22 -33 -52 0
-8 -22 -33 -60 0
-8 -22 -37 -43 0
-8 -22 -37 -52 0
-8 -22 -37 -60 0
-8 -22 -43 -52 0
-8 -22 -43 -60 0
-8 -22 -52 -60 0
-8 -33 -37 -43 0
-8 -33 -37 -52 0
-8 -33 -37 -60 0
-8 -33 -43 -52 0
-8 -33 -43 -60 0
-8 -33 -52 -60 0
-8 -37 -43 -52 0
-8 -37 -43 -60 0
-8 -37 -52 -60 0
-8 -43 -52 -60 0
-20 -22 -33 -37 0
-20 -22 -33 -43 0
-20 -22 -33 -52 0
-20 -22 -33 -60 0
-20 -22 -37 -43 0
-20 -22 -37 -52 0
-20 -22 -37 -60 0
-20 -22 -43 -52 0
-20 -22 -43 -60 0
-20 -22 -52 -60 0
-20 -33 -37 -43 0
-20 -33 -37 -52 0
-20 -33 -37 -60 0
-20 -33 -43 -52 0
-20 -33 -43 -60 0
-20 -33 -52 -60 0
-20 -37 -43 -52 0
-20 -37 -43 -60 0
-20 -37 -52 -60 0
-20 -43 -52 -60 0
-22 -33 -37 -43 0
-22 -33 -37 -52 0
-22 -33 -37 -60 0
-22 -33 -43 -52 0
-22 -33 -43 -60 0
-22 -33 -52 -60 0
-22 -37 -43 -52 0
-22 -37 -43 -60 0
-22 -37 -52 -60 0
-22 -43 -52 -60 0
-33 -37 -43 -52 0
-33 -37 -43 -60 0
-33 -37 -52 -60 0
-33 -43 -52 -60 0
-37 -43 -52 -60 0
-5 -14 -19 -25 0
-5 -14 -19 -33 0
-5 -14 -19 -40 0
-5 -14 -19 -49 0
-5 -14 -19 -52 0
-5 -14 -19 -58 0
-5 -14 -25 -33 0
-5 -14 -25 -40 0
-5 -14 -25 -49 0
-5 -14 -25 -52 0
-5 -14 -25 -58 0
-5 -14 -33 -40 0
-5 -14 -33 -49 0
-5 -14 -33 -52 0
-5 -14 -33 -58 0
-5 -14 -40 -49 0
-5 -14 -40 -52 0
-5 -14 -40 -58 0
-5 -14 -49 -52 0
-5 -14 -49 -58 0
-5 -14 -52 -58 0
-5 -19 -25 -33 0
-5 -19 -25 -40 0
-5 -19 -25 -49 0
-5 -19 -25 -52 0
-5 -19 -25 -58 0
-5 -19 -33 -40 0
-5 -19 -33 -49 0
-5 -19 -33 -52 0
-5 -19 -33 -58 0
-5 -19 -40 -49 0
-5 -19 -40 -52 0
-5 -19 -40 -58 0
-5 -19 -49 -52 0
-5 -19 -49 -58 0
-5 -19 -52 -58 0
-5 -25 -33 -40 0
-5 -25 -33 -49 0
-5 -25 -33 -52 0
-5 -25 -33 -58 0
-5 -25 -40 -49 0
-5 -25 -40 -52 0
-5 -25 -40 -58 0
-5 -25 -49 -52 0
-5 -25 -49 -58 0
-5 -25 -52 -58 0
-5 -33 -40 -49 0
-5 -33 -40 -52 0
-5 -33 -40 -58 0
-5 -33 -49 -52 0
-5 -33 -49 -58 0
-5 -33 -52 -58 0
-5 -40 -49 -52 0
-5 -40 -49 -58 0
-5 -40 -52 -58 0
-5 -49 -52 -58 0
-14 -19 -25 -33 0
-14 -19 -25 -40 0
-14 -19 -25 -49 0
-14 -19 -25 -52 0
-14 -19 -25 -58 0
-14 -19 -33 -40 0
-14 -19 -33 -49 0
-14 -19 -33 -52 0
-14 -19 -33 -58 0
-14 -19 -40 -49 0
-14 -19 -40 -52 0
-14 -19 -40 -58 0
-14 -19 -49 -52 0
-14 -19 -49 -58 0
-14 -19 -52 -58 0
-14 -25 -33 -40 0
-14 -25 -33 -49 0
-14 -25 -33 -52 0
-14 -25 -33 -58 0
-14 -25 -40 -49 0
-14 -25 -40 -52 0
-14 -25 -40 -58 0
-14 -25 -49 -52 0
-14 -25 -49 -58 0
-14 -25 -52 -58 0
-14 -33 -40 -49 0
-14 -33 -40 -52 0
-14 -33 -40 -58 0
-14 -33 -49 -52 0
-14 -33 -49 -58 0
-14 -33 -52 -58 0
-14 -40 -49 -52 0
-14 -40 -49 -58 0
-14 -40 -52 -58 0
-14 -49 -52 -58 0
-19 -25 -33 -40 0
-19 -25 -33 -49 0
-19 -25 -33 -52 0
-19 -25 -33 -58 0
-19 -25 -40 -49 0
-19 -25 -40 -52 0
-19 -25 -40 -58 0
-19 -25 -49 -52 0
-19 -25 -49 -58 0
-19 -25 -52 -58 0
-19 -33 -40 -49 0
-19 -33 -40 -52 0
-19 -33 -40 -58 0
-19 -33 -49 -52 0
-19 -33 -49 -58 0
-19 -33 -52 -58 0
-19 -40 -49 -52 0
-19 -40 -49 -58 0
-19 -40 -52 -58 0
-19 -49 -52 -58 0
-25 -33 -40 -49 0
-25 -33 -40 -52 0
-25 -33 -40 -58 0
-25 -33 -49 -52 0
-25 -33 -49 -58 0
-25 -33 -52 -58 0
-25 -40 -49 -52 0
-25 -40 -49 -58 0
-25 -40 -52 -58 0
-25 -49 -52 -58 0
-33 -40 -49 -52 0
-33 -40 -49 -58 0
-33 -40 -52 -58 0
-33 -49 -52 -58 0
-40 -49 -52 -58 0
-5 -8 -19 -26 0
-5 -8 -19 -32 0
-5 -8 -19 -40 0
-5 -8 -19 -47 0
-5 -8 -19 -53 0
-5 -8 -19 -59 0
-5 -8 -26 -32 0
-5 -8 -26 -40 0
-5 -8 -26 -47 0
-5 -8 -26 -53 0
-5 -8 -26 -59 0
-5 -8 -32 -40 0
-5 -8 -32 -47 0
-5 -8 -32 -53 0
-5 -8 -32 -59 0
-5 -8 -40 -47 0
-5 -8 -40 -53 0
-5 -8 -40 -59 0
-5 -8 -47 -53 0
-5 -8 -47 -59 0
-5 -8 -53 -59 0
-5 -19 -26 -32 0
-5 -19 -26 -40 0
-5 -19 -26 -47 0
-5 -19 -26 -53 0
-5 -19 -26 -59 0
-5 -19 -32 -40 0
-5 -19 -32 -47 0
-5 -19 -32 -53 0
-5 -19 -32 -59 0
-5 -19 -40 -47 0
-5 -19 -40 -53 0
-5 -19 -40 -59 0
-5 -19 -47 -53 0
-5 -19 -47 -59 0
-5 -19 -53 -59 0
-5 -26 -32 -40 0
-5 -26 -32 -47 0
-5 -26 -32 -53 0
-5 -26 -32 -59 0
-5 -26 -40 -47 0
-5 -26 -40 -53 0
-5 -26 -40 -59 0
-5 -26 -47 -53 0
-5 -26 -47 -59 0
-5 -26 -53 -59 0
-5 -32 -40 -47 0
-5 -32 -40 -53 0
-5 -32 -40 -59 0
-5 -32 -47 -53 0
-5 -32 -47 -59 0
-5 -32 -53 -59 0
-5 -40 -47 -53 0
-5 -40 -47 -59 0
-5 -40 -53 -59 0
-5 -47 -53 -59 0
-8 -19 -26 -32 0
-8 -19 -26 -40 0
-8 -19 -26 -47 0
-8 -19 -26 -53 0
-8 -19 -26 -59 0
-8 -19 -32 -40 0
-8 -19 -32 -47 0
-8 -19 -32 -53 0
-8 -19 -32 -59 0
-8 -19 -40 -47 0
-8 -19 -40 -53 0
-8 -19 -40 -59 0
-8 -19 -47 -53 0
-8 -19 -47 -59 0
-8 -19 -53 -59 0
-8 -26 -32 -40 0
-8 -26 -32 -47 0
-8 -26 -32 -53 0
-8 -26 -32 -59 0
-8 -26 -40 -47 0
-8 -26 -40 -53 0
-8 -26 -40 -59 0
-8 -26 -47 -53 0
-8 -26 -47 -59 0
-8 -26 -53 -59 0
-8 -32 -40 -47 0
-8 -32 -40 -53 0
-8 -32 -40 -59 0
-8 -32 -47 -53 0
-8 -32 -47 -59 0
-8 -32 -53 -59 0
-8 -40 -47 -53 0
-8 -40 -47 -59 0
-8 -40 -53 -59 0
-8 -47 -53 -59 0
-19 -26 -32 -40 0
-19 -26 -32 -47 0
-19 -26 -32 -53 0
-19 -26 -32 -59 0
-19 -26 -40 -47 0
-19 -26 -40 -53 0
-19 -26 -40 -59 0
-19 -26 -47 -53 0
-19 -26 -47 -59 0
-19 -26 -53 -59 0
-19 -32 -40 -47 0
-19 -32 -40 -53 0
-19 -32 -40 -59 0
-19 -32 -47 -53 0
-19 -32 -47 -59 0
-19 -32 -53 -59 0
-19 -40 -47 -53 0
-19 -40 -47 -59 0
-19 -40 -53 -59 0
-19 -47 -53 -59 0
-26 -32 -40 -47 0
-26 -32 -40 -53 0
-26 -32 -40 -59 0
-26 -32 -47 -53 0
-26 -32 -47 -59 0
-26 -32 -53 -59 0
-26 -40 -47 -53 0
-26 -40 -47 -59 0
-26 -40 -53 -59 0
-26 -47 -53 -59 0
-32 -40 -47 -53 0
-32 -40 -47 -59 0
-32 -40 -53 -59 0
-32 -47 -53 -59 0
-40 -47 -53 -59 0
-4 -8 -19 -22 0
-4 -8 -19 -29 0
-4 -8 -19 -42 0
-4 -8 -19 -44 0
-4 -8 -19 -54 0
-4 -8 -19 -57 0
-4 -8 -22 -29 0
-4 -8 -22 -42 0
-4 -8 -22 -44 0
-4 -8 -22 -54 0
-4 -8 -22 -57 0
-4 -8 -29 -42 0
-4 -8 -29 -44 0
-4 -8 -29 -54 0
-4 -8 -29 -57 0
-4 -8 -42 -44 0
-4 -8 -42 -54 0
-4 -8 -42 -57 0
-4 -8 -44 -54 0
-4 -8 -44 -57 0
-4 -8 -54 -57 0
-4 -19 -22 -29 0
-4 -19 -22 -42 0
-4 -19 -22 -44 0
-4 -19 -22 -54 0
-4 -19 -22 -57 0
-4 -19 -29 -42 0
-4 -19 -29 -44 0
-4 -19 -29 -54 0
-4 -19 -29 -57 0
-4 -19 -42 -44 0
-4 -19 -42 -54 0
-4 -19 -42 -57 0
-4 -19 -44 -54 0
-4 -19 -44 -57 0
-4 -19 -54 -57 0
-4 -22 -29 -42 0
-4 -22 -29 -44 0
-4 -22 -29 -54 0
-4 -22 -29 -57 0
-4 -22 -42 -44 0
-4 -22 -42 -54 0
-4 -22 -42 -57 0
-4 -22 -44 -54 0
-4 -22 -44 -57 0
-4 -22 -54 -57 0
-4 -29 -42 -44 0
-4 -29 -42 -54 0
-4 -29 -42 -57 0
-4 -29 -44 -54 0
-4 -29 -44 -57 0
-4 -29 -54 -57 0
-4 -42 -44 -54 0
-4 -42 -44 -57 0
-4 -42 -54 -57 0
-4 -44 -54 -57 0
-8 -19 -22 -29 0
-8 -19 -22 -42 0
-8 -19 -22 -44 0
-8 -19 -22 -54 0
-8 -19 -22 -57 0
-8 -19 -29 -42 0
-8 -19 -29 -44 0
-8 -19 -29 -54 0
-8 -19 -29 -57 0
-8 -19 -42 -44 0
-8 -19 -42 -54 0
-8 -19 -42 -57 0
-8 -19 -44 -54 0
-8 -19 -44 -57 0
-8 -19 -54 -57 0
-8 -22 -29 -42 0
-8 -22 -29 -44 0
-8 -22 -29 -54 0
-8 -22 -29 -57 0
-8 -22 -42 -44 0
-8 -22 -42 -54 0
-8 -22 -42 -57 0
-8 -22 -44 -54 0
-8 -22 -44 -57 0
-8 -22 -54 -57 0
-8 -29 -42 -44 0
-8 -29 -42 -54 0
-8 -29 -42 -57 0
-8 -29 -44 -54 0
-8 -29 -44 -57 0
-8 -29 -54 -57 0
-8 -42 -44 -54 0
-8 -42 -44 -57 0
-8 -42 -54 -57 0
-8 -44 -54 -57 0
-19 -22 -29 -42 0
-19 -22 -29 -44 0
-19 -22 -29 -54 0
-19 -22 -29 -57 0
-19 -22 -42 -44 0
-19 -22 -42 -54 0
-19 -22 -42 -57 0
-19 -22 -44 -54 0
-19 -22 -44 -57 0
-19 -22 -54 -57 0
-19 -29 -42 -44 0
-19 -29 -42 -54 0
-19 -29 -42 -57 0
-19 -29 -44 -54 0
-19 -29 -44 -57 0
-19 -29 -54 -57 0
-19 -42 -44 -54 0
-19 -42 -44 -57 0
-19 -42 -54 -57 0
-19 -44 -54 -57 0
-22 -29 -42 -44 0
-22 -29 -42 -54 0
-22 -29 -42 -57 0
-22 -29 -44 -54 0
-22 -29 -44 -57 0
-22 -29 -54 -57 0
-22 -42 -44 -54 0
-22 -42 -44 -57 0
-22 -42 -54 -57 0
-22 -44 -54 -57 0
-29 -42 -44 -54 0
-29 -42 -44 -57 0
-29 -42 -54 -57 0
-29 -44 -54 -57 0
-42 -44 -54 -57 0
-5 -10 -16 -28 0
-5 -10 -16 -35 0
-5 -10 -16 -36 0
-5 -10 -16 -48 0
-5 -10 -16 -51 0
-5 -10 -16 -61 0
-5 -10 -28 -35 0
-5 -10 -28 -36 0
-5 -10 -28 -48 0
-5 -10 -28 -51 0
-5 -10 -28 -61 0
-5 -10 -35 -36 0
-5 -10 -35 -48 0
-5 -10 -35 -51 0
-5 -10 -35 -61 0
-5 -10 -36 -48 0
-5 -10 -36 -51 0
-5 -10 -36 -61 0
-5 -10 -48 -51 0
-5 -10 -48 -61 0
-5 -10 -51 -61 0
-5 -16 -28 -35 0
-5 -16 -28 -36 0
-5 -16 -28 -48 0
-5 -16 -28 -51 0
-5 -16 -28 -61 0
-5 -16 -35 -36 0
-5 -16 -35 -48 0
-5 -16 -35 -51 0
-5 -16 -35 -61 0
-5 -16 -36 -48 0
-5 -16 -36 -51 0
-5 -16 -36 -61 0
-5 -16 -48 -51 0
-5 -16 -48 -61 0
-5 -16 -51 -61 0
-5 -28 -35 -36 0
-5 -28 -35 -48 0
-5 -28 -35 -51 0
-5 -28 -35 -61 0
-5 -28 -36 -48 0
-5 -28 -36 -51 0
-5 -28 -36 -61 0
-5 -28 -48 -51 0
-5 -28 -48 -61 0
-5 -28 -51 -61 0
-5 -35 -36 -48 0
-5 -35 -36 -51 0
-5 -35 -36 -61 0
-5 -35 -48 -51 0
-5 -35 -48 -61 0
-5 -35 -51 -61 0
-5 -36 -48 -51 0
-5 -36 -48 -61 0
-5 -36 -51 -61 0
-5 -48 -51 -61 0
-10 -16 -28 -35 0
-10 -16 -28 -36 0
-10 -16 -28 -48 0
-10 -16 -28 -51 0
-10 -16 -28 -61 0
-10 -16 -35 -36 0
-10 -16 -35 -48 0
-10 -16 -35 -51 0
-10 -16 -35 -61 0
-10 -16 -36 -48 0
-10 -16 -36 -51 0
-10 -16 -36 -61 0
-10 -16 -48 -51 0
-10 -16 -48 -61 0
-10 -16 -51 -61 0
-10 -28 -35 -36 0
-10 -28 -35 -48 0
-10 -28 -35 -51 0
-10 -28 -35 -61 0
-10 -28 -36 -48 0
-10 -28 -36 -51 0
-10 -28 -36 -61 0
-10 -28 -48 -51 0
-10 -28 -48 -61 0
-10 -28 -51 -61 0
-10 -35 -36 -48 0
-10 -35 -36 -51 0
-10 -35 -36 -61 0
-10 -35 -48 -51 0
-10 -35 -48 -61 0
-10 -35 -51 -61 0
-10 -36 -48 -51 0
-10 -36 -48 -61 0
-10 -36 -51 -61 0
-10 -48 -51 -61 0
-16 -28 -35 -36 0
-16 -28 -35 -48 0
-16 -28 -35 -51 0
-16 -28 -35 -61 0
-16 -28 -36 -48 0
-16 -28 -36 -51 0
-16 -28 -36 -61 0
-16 -28 -48 -51 0
-16 -28 -48 -61 0
-16 -28 -51 -61 0
-16 -35 -36 -48 0
-16 -35 -36 -51 0
-16 -35 -36 -61 0
-16 -35 -48 -51 0
-16 -35 -48 -61 0
-16 -35 -51 -61 0
-16 -36 -48 -51 0
-16 -36 -48 -61 0
-16 -36 -51 -61 0
-16 -48 -51 -61 0
-28 -35 -36 -48 0
-28 -35 -36 -51 0
-28 -35 -36 -61 0
-28 -35 -48 -51 0
-28 -35 -48 -61 0
-28 -35 -51 -61 0
-28 -36 -48 -51 0
-28 -36 -48 -61 0
-28 -36 -51 -61 0
-28 -48 -51 -61 0
-35 -36 -48 -51 0
-35 -36 -48 -61 0
-35 -36 -51 -61 0
-35 -48 -51 -61 0
-36 -48 -51 -61 0
-6 -10 -15 -24 0
-6 -10 -15 -35 0
-6 -10 -15 -36 0
-6 -10 -15 -47 0
-6 -10 -15 -56 0
-6 -10 -15 -60 0
-6 -10 -24 -35 0
-6 -10 -24 -36 0
-6 -10 -24 -47 0
-6 -10 -24 -56 0
-6 -10 -24 -60 0
-6 -10 -35 -36 0
-6 -10 -35 -47 0
-6 -10 -35 -56 0
-6 -10 -35 -60 0
-6 -10 -36 -47 0
-6 -10 -36 -56 0
-6 -10 -36 -60 0
-6 -10 -47 -56 0
-6 -10 -47 -60 0
-6 -10 -56 -60 0
-6 -15 -24 -35 0
-6 -15 -24 -36 0
-6 -15 -24 -47 0
-6 -15 -24 -56 0
-6 -15 -24 -60 0
-6 -15 -35 -36 0
-6 -15 -35 -47 0
-6 -15 -35 -56 0
-6 -15 -35 -60 0
-6 -15 -36 -47 0
-6 -15 -36 -56 0
-6 -15 -36 -60 0
-6 -15 -47 -56 0
-6 -15 -47 -60 0
-6 -15 -56 -60 0
-6 -24 -35 -36 0
-6 -24 -35 -47 0
-6 -24 -35 -56 0
-6 -24 -35 -60 0
-6 -24 -36 -47 0
-6 -24 -36 -56 0
-6 -24 -36 -60 0
-6 -24 -47 -56 0
-6 -24 -47 -60 0
-6 -24 -56 -60 0
-6 -35 -36 -47 0
-6 -35 -36 -56 0
-6 -35 -36 -60 0
-6 -35 -47 -56 0
-6 -35 -47 -60 0
-6 -35 -56 -60 0
-6 -36 -47 -56 0
-6 -36 -47 -60 0
-6 -36 -56 -60 0
-6 -47 -56 -60 0
-10 -15 -24 -35 0
-10 -15 -24 -36 0
-10 -15 -24 -47 0
-10 -15 -24 -56 0
-10 -15 -24 -60 0
-10 -15 -35 -36 0
-10 -15 -35 -47 0
-10 -15 -35 -56 0
-10 -15 -35 -60 0
-10 -15 -36 -47 0
-10 -15 -36 -56 0
-10 -15 -36 -60 0
-10 -15 -47 -56 0
-10 -15 -47 -60 0
-10 -15 -56 -60 0
-10 -24 -35 -36 0
-10 -24 -35 -47 0
-10 -24 -35 -56 0
-10 -24 -35 -60 0
-10 -24 -36 -47 0
-10 -24 -36 -56 0
-10 -24 -36 -60 0
-10 -24 -47 -56 0
-10 -24 -47 -60 0
-10 -24 -56 -60 0
-10 -35 -36 -47 0
-10 -35 -36 -56 0
-10 -35 -36 -60 0
-10 -35 -47 -56 0
-10 -35 -47 -60 0
-10 -35 -56 -60 0
-10 -36 -47 -56 0
-10 -36 -47 -60 0
-10 -36 -56 -60 0
-10 -47 -56 -60 0
-15 -24 -35 -36 0
-15 -24 -35 -47 0
-15 -24 -35 -56 0
-15 -24 -35 -60 0
-15 -24 -36 -47 0
-15 -24 -36 -56 0
-15 -24 -36 -60 0
-15 -24 -47 -56 0
-15 -24 -47 -60 0
-15 -24 -56 -60 0
-15 -35 -36 -47 0
-15 -35 -36 -56 0
-15 -35 -36 -60 0
-15 -35 -47 -56 0
-15 -35 -47 -60 0
-15 -35 -56 -60 0
-15 -36 -47 -56 0
-15 -36 -47 -60 0
-15 -36 -56 -60 0
-15 -47 -56 -60 0
-24 -35 -36 -47 0
-24 -35 -36 -56 0
-24 -35 -36 -60 0
-24 -35 -47 -56 0
-24 -35 -47 -60 0
-24 -35 -56 -60 0
-24 -36 -47 -56 0
-24 -36 -47 -60 0
-24 -36 -56 -60 0
-24 -47 -56 -60 0
-35 -36 -47 -56 0
-35 -36 -47 -60 0
-35 -36 -56 -60 0
-35 -47 -56 -60 0
-36 -47 -56 -60 0
-1 -13 -17 -22 0
-1 -13 -17 -30 0
-1 -13 -17 -38 0
-1 -13 -17 -45 0
-1 -13 -17 -55 0
-1 -13 -17 -63 0
-1 -13 -22 -30 0
-1 -13 -22 -38 0
-1 -13 -22 -45 0
-1 -13 -22 -55 0
-1 -13 -22 -63 0
-1 -13 -30 -38 0
-1 -13 -30 -45 0
-1 -13 -30 -55 0
-1 -13 -30 -63 0
-1 -13 -38 -45 0
-1 -13 -38 -55 0
-1 -13 -38 -63 0
-1 -13 -45 -55 0
-1 -13 -45 -63 0
-1 -13 -55 -63 0
-1 -17 -22 -30 0
-1 -17 -22 -38 0
-1 -17 -22 -45 0
-1 -17 -22 -55 0
-1 -17 -22 -63 0
-1 -17 -30 -38 0
-1 -17 -30 -45 0
-1 -17 -30 -55 0
-1 -17 -30 -63 0
-1 -17 -38 -45 0
-1 -17 -38 -55 0
-1 -17 -38 -63 0
-1 -17 -45 -55 0
-1 -17 -45 -63 0
-1 -17 -55 -63 0
-1 -22 -30 -38 0
-1 -22 -30 -45 0
-1 -22 -30 -55 0
-1 -22 -30 -63 0
-1 -22 -38 -45 0
-1 -22 -38 -55 0
-1 -22 -38 -63 0
-1 -22 -45 -55 0
-1 -22 -45 -63 0
-1 -22 -55 -63 0
-1 -30 -38 -45 0
-1 -30 -38 -55 0
-1 -30 -38 -63 0
-1 -30 -45 -55 0
-1 -30 -45 -63 0
-1 -30 -55 -63 0
-1 -38 -45 -55 0
-1 -38 -45 -63 0
-1 -38 -55 -63 0
-1 -45 -55 -63 0
-13 -17 -22 -30 0
-13 -17 -22 -38 0
-13 -17 -22 -45 0
-13 -17 -22 -55 0
-13 -17 -22 -63 0
-13 -17 -30 -38 0
-13 -17 -30 -45 0
-13 -17 -30 -55 0
-13 -17 -30 -63 0
-13 -17 -38 -45 0
-13 -17 -38 -55 0
-13 -17 -38 -63 0
-13 -17 -45 -55 0
-13 -17 -45 -63 0
-13 -17 -55 -63 0
-13 -22 -30 -38 0
-13 -22 -30 -45 0
-13 -22 -30 -55 0
-13 -22 -30 -63 0
-13 -22 -38 -45 0
-13 -22 -38 -55 0
-13 -22 -38 -63 0
-13 -22 -45 -55 0
-13 -22 -45 -63 0
-13 -22 -55 -63 0
-13 -30 -38 -45 0
-13 -30 -38 -55 0
-13 -30 -38 -63 0
-13 -30 -45 -55 0
-13 -30 -45 -63 0
-13 -30 -55 -63 0
-13 -38 -45 -55 0
-13 -38 -45 -63 0
-13 -38 -55 -63 0
-13 -45 -55 -63 0
-17 -22 -30 -38 0
-17 -22 -30 -45 0
-17 -22 -30 -55 0
-17 -22 -30 -63 0
-17 -22 -38 -45 0
-17 -22 -38 -55 0
-17 -22 -38 -63 0
-17 -22 -45 -55 0
-17 -22 -45 -63 0
-17 -22 -55 -63 0
-17 -30 -38 -45 0
-17 -30 -38 -55 0
-17 -30 -38 -63 0
-17 -30 -45 -55 0
-17 -30 -45 -63 0
-17 -30 -55 -63 0
-17 -38 -45 -55 0
-17 -38 -45 -63 0
-17 -38 -55 -63 0
-17 -45 -55 -63 0
-22 -30 -38 -45 0
-22 -30 -38 -55 0
-22 -30 -38 -63 0
-22 -30 -45 -55 0
-22 -30 -45 -63 0
-22 -30 -55 -63 0
-22 -38 -45 -55 0
-22 -38 -45 -63 0
-22 -38 -55 -63 0
-22 -45 -55 -63 0
-30 -38 -45 -55 0
-30 -38 -45 -63 0
-30 -38 -55 -63 0
-30 -45 -55 -63 0
-38 -45 -55 -63 0
-3 -10 -19 -28 0
-3 -10 -19 -33 0
-3 -10 -19 -38 0
-3 -10 -19 -45 0
-3 -10 -19 -54 0
-3 -10 -19 -59 0
-3 -10 -28 -33 0
-3 -10 -28 -38 0
-3 -10 -28 -45 0
-3 -10 -28 -54 0
-3 -10 -28 -59 0
-3 -10 -33 -38 0
-3 -10 -33 -45 0
-3 -10 -33 -54 0
-3 -10 -33 -59 0
-3 -10 -38 -45 0
-3 -10 -38 -54 0
-3 -10 -38 -59 0
-3 -10 -45 -54 0
-3 -10 -45 -59 0
-3 -10 -54 -59 0
-3 -19 -28 -33 0
-3 -19 -28 -38 0
-3 -19 -28 -45 0
-3 -19 -28 -54 0
-3 -19 -28 -59 0
-3 -19 -33 -38 0
-3 -19 -33 -45 0
-3 -19 -33 -54 0
-3 -19 -33 -59 0
-3 -19 -38 -45 0
-3 -19 -38 -54 0
-3 -19 -38 -59 0
-3 -19 -45 -54 0
-3 -19 -45 -59 0
-3 -19 -54 -59 0
-3 -28 -33 -38 0
-3 -28 -33 -45 0
-3 -28 -33 -54 0
-3 -28 -33 -59 0
-3 -28 -38 -45 0
-3 -28 -38 -54 0
-3 -28 -38 -59 0
-3 -28 -45 -54 0
-3 -28 -45 -59 0
-3 -28 -54 -59 0
-3 -33 -38 -45 0
-3 -33 -38 -54 0
-3 -33 -38 -59 0
-3 -33 -45 -54 0
-3 -33 -45 -59 0
-3 -33 -54 -59 0
-3 -38 -45 -54 0
-3 -38 -45 -59 0
-3 -38 -54 -59 0
-3 -45 -54 -59 0
-10 -19 -28 -33 0
-10 -19 -28 -38 0
-10 -19 -28 -45 0
-10 -19 -28 -54 0
-10 -19 -28 -59 0
-10 -19 -33 -38 0
-10 -19 -33 -45 0
-10 -19 -33 -54 0
-10 -19 -33 -59 0
-10 -19 -38 -45 0
-10 -19 -38 -54 0
-10 -19 -38 -59 0
-10 -19 -45 -54 0
-10 -19 -45 -59 0
-10 -19 -54 -59 0
-10 -28 -33 -38 0
-10 -28 -33 -45 0
-10 -28 -33 -54 0
-10 -28 -33 -59 0
-10 -28 -38 -45 0
-10 -28 -38 -54 0
-10 -28 -38 -59 0
-10 -28 -45 -54 0
-10 -28 -45 -59 0
-10 -28 -54 -59 0
-10 -33 -38 -45 0
-10 -33 -38 -54 0
-10 -33 -38 -59 0
-10 -33 -45 -54 0
-10 -33 -45 -59 0
-10 -33 -54 -59 0
-10 -38 -45 -54 0
-10 -38 -45 -59 0
-10 -38 -54 -59 0
-10 -45 -54 -59 0
-19 -28 -33 -38 0
-19 -28 -33 -45 0
-19 -28 -33 -54 0
-19 -28 -33 -59 0
-19 -28 -38 -45 0
-19 -28 -38 -54 0
-19 -28 -38 -59 0
-19 -28 -45 -54 0
-19 -28 -45 -59 0
-19 -28 -54 -59 0
-19 -33 -38 -45 0
-19 -33 -38 -54 0
-19 -33 -38 -59 0
-19 -33 -45 -54 0
-19 -33 -45 -59 0
-19 -33 -54 -59 0
-19 -38 -45 -54 0
-19 -38 -45 -59 0
-19 -38 -54 -59 0
-19 -45 -54 -59 0
-28 -33 -38 -45 0
-28 -33 -38 -54 0
-28 -33 -38 -59 0
-28 -33 -45 -54 0
-28 -33 -45 -59 0
-28 -33 -54 -59 0
-28 -38 -45 -54 0
-28 -38 -45 -59 0
-28 -38 -54 -59 0
-28 -45 -54 -59 0
-33 -38 -45 -54 0
-33 -38 -45 -59 0
-33 -38 -54 -59 0
-33 -45 -54 -59 0
-38 -45 -54 -59 0
-2 -12 -21 -27 0
-2 -12 -21 -35 0
-2 -12 -21 -37 0
-2 -12 -21 -45 0
-2 -12 -21 -51 0
-2 -12 -21 -62 0
-2 -12 -27 -35 0
-2 -12 -27 -37 0
-2 -12 -27 -45 0
-2 -12 -27 -51 0
-2 -12 -27 -62 0
-2 -12 -35 -37 0
-2 -12 -35 -45 0
-2 -12 -35 -51 0
-2 -12 -35 -62 0
-2 -12 -37 -45 0
-2 -12 -37 -51 0
-2 -12 -37 -62 0
-2 -12 -45 -51 0
-2 -12 -45 -62 0
-2 -12 -51 -62 0
-2 -21 -27 -35 0
-2 -21 -27 -37 0
-2 -21 -27 -45 0
-2 -21 -27 -51 0
-2 -21 -27 -62 0
-2 -21 -35 -37 0
-2 -21 -35 -45 0
-2 -21 -35 -51 0
-2 -21 -35 -62 0
-2 -21 -37 -45 0
-2 -21 -37 -51 0
-2 -21 -37 -62 0
-2 -21 -45 -51 0
-2 -21 -45 -62 0
-2 -21 -51 -62 0
-2 -27 -35 -37 0
-2 -27 -35 -45 0
-2 -27 -35 -51 0
-2 -27 -35 -62 0
-2 -27 -37 -45 0
-2 -27 -37 -51 0
-2 -27 -37 -62 0
-2 -27 -45 -51 0
-2 -27 -45 -62 0
-2 -27 -51 -62 0
-2 -35 -37 -45 0
-2 -35 -37 -51 0
-2 -35 -37 -62 0
-2 -35 -45 -51 0
-2 -35 -45 -62 0
-2 -35 -51 -62 0
-2 -37 -45 -51 0
-2 -37 -45 -62 0
-2 -37 -51 -62 0
-2 -45 -51 -62 0
-12 -21 -27 -35 0
-12 -21 -27 -37 0
-12 -21 -27 -45 0
-12 -21 -27 -51 0
-12 -21 -27 -62 0
-12 -21 -35 -37 0
-12 -21 -35 -45 0
-12 -21 -35 -51 0
-12 -21 -35 -62 0
-12 -21 -37 -45 0
-12 -21 -37 -51 0
-12 -21 -37 -62 0
-12 -21 -45 -51 0
-12 -21 -45 -62 0
-12 -21 -51 -62 0
-12 -27 -35 -37 0
-12 -27 -35 -45 0
-12 -27 -35 -51 0
-12 -27 -35 -62 0
-12 -27 -37 -45 0
-12 -27 -37 -51 0
-12 -27 -37 -62 0
-12 -27 -45 -51 0
-12 -27 -45 -62 0
-12 -27 -51 -62 0
-12 -35 -37 -45 0
-12 -35 -37 -51 0
-12 -35 -37 -62 0
-12 -35 -45 -51 0
-12 -35 -45 -62 0
-12 -35 -51 -62 0
-12 -37 -45 -51 0
-12 -37 -45 -62 0
-12 -37 -51 -62 0
-12 -45 -51 -62 0
-21 -27 -35 -37 0
-21 -27 -35 -45 0
-21 -27 -35 -51 0
-21 -27 -35 -62 0
-21 -27 -37 -45 0
-21 -27 -37 -51 0
-21 -27 -37 -62 0
-21 -27 -45 -51 0
-21 -27 -45 -62 0
-21 -27 -51 -62 0
-21 -35 -37 -45 0
-21 -35 -37 -51 0
-21 -35 -37 -62 0
-21 -35 -45 -51 0
-21 -35 -45 -62 0
-21 -35 -51 -62 0
-21 -37 -45 -51 0
-21 -37 -45 -62 0
-21 -37 -51 -62 0
-21 -45 -51 -62 0
-27 -35 -37 -45 0
-27 -35 -37 -51 0
-27 -35 -37 -62 0
-27 -35 -45 -51 0
-27 -35 -45 -62 0
-27 -35 -51 -62 0
-27 -37 -45 -51 0
-27 -37 -45 -62 0
-27 -37 -51 -62 0
-27 -45 -51 -62 0
-35 -37 -45 -51 0
-35 -37 -45 -62 0
-35 -37 -51 -62 0
-35 -45 -51 -62 0
-37 -45 -51 -62 0
-2 -12 -15 -27 0
-2 -12 -15 -31 0
-2 -12 -15 -39 0
-2 -12 -15 -45 0
-2 -12 -15 -56 0
-2 -12 -15 -60 0
-2 -12 -27 -31 0
-2 -12 -27 -39 0
-2 -12 -27 -45 0
-2 -12 -27 -56 0
-2 -12 -27 -60 0
-2 -12 -31 -39 0
-2 -12 -31 -45 0
-2 -12 -31 -56 0
-2 -12 -31 -60 0
-2 -12 -39 -45 0
-2 -12 -39 -56 0
-2 -12 -39 -60 0
-2 -12 -45 -56 0
-2 -12 -45 -60 0
-2 -12 -56 -60 0
-2 -15 -27 -31 0
-2 -15 -27 -39 0
-2 -15 -27 -45 0
-2 -15 -27 -56 0
-2 -15 -27 -60 0
-2 -15 -31 -39 0
-2 -15 -31 -45 0
-2 -15 -31 -56 0
-2 -15 -31 -60 0
-2 -15 -39 -45 0
-2 -15 -39 -56 0
-2 -15 -39 -60 0
-2 -15 -45 -56 0
-2 -15 -45 -60 0
-2 -15 -56 -60 0
-2 -27 -31 -39 0
-2 -27 -31 -45 0
-2 -27 -31 -56 0
-2 -27 -31 -60 0
-2 -27 -39 -45 0
-2 -27 -39 -56 0
-2 -27 -39 -60 0
-2 -27 -45 -56 0
-2 -27 -45 -60 0
-2 -27 -56 -60 0
-2 -31 -39 -45 0
-2 -31 -39 -56 0
-2 -31 -39 -60 0
-2 -31 -45 -56 0
-2 -31 -45 -60 0
-2 -31 -56 -60 0
-2 -39 -45 -56 0
-2 -39 -45 -60 0
-2 -39 -56 -60 0
-2 -45 -56 -60 0
-12 -15 -27 -31 0
-12 -15 -27 -39 0
-12 -15 -27 -45 0
-12 -15 -27 -56 0
-12 -15 -27 -60 0
-12 -15 -31 -39 0
-12 -15 -31 -45 0
-12 -15 -31 -56 0
-12 -15 -31 -60 0
-12 -15 -39 -45 0
-12 -15 -39 -56 0
-12 -15 -39 -60 0
-12 -15 -45 -56 0
-12 -15 -45 -60 0
-12 -15 -56 -60 0
-12 -27 -31 -39 0
-12 -27 -31 -45 0
-12 -27 -31 -56 0
-12 -27 -31 -60 0
-12 -27 -39 -45 0
-12 -27 -39 -56 0
-12 -27 -39 -60 0
-12 -27 -45 -56 0
-12 -27 -45 -60 0
-12 -27 -56 -60 0
-12 -31 -39 -45 0
-12 -31 -39 -56 0
-12 -31 -39 -60 0
-12 -31 -45 -56 0
-12 -31 -45 -60 0
-12 -31 -56 -60 0
-12 -39 -45 -56 0
-12 -39 -45 -60 0
-12 -39 -56 -60 0
-12 -45 -56 -60 0
-15 -27 -31 -39 0
-15 -27 -31 -45 0
-15 -27 -31 -56 0
-15 -27 -31 -60 0
-15 -27 -39 -45 0
-15 -27 -39 -56 0
-15 -27 -39 -60 0
-15 -27 -45 -56 0
-15 -27 -45 -60 0
-15 -27 -56 -60 0
-15 -31 -39 -45 0
-15 -31 -39 -56 0
-15 -31 -39 -60 0
-15 -31 -45 -56 0
-15 -31 -45 -60 0
-15 -31 -56 -60 0
-15 -39 -45 -56 0
-15 -39 -45 -60 0
-15 -39 -56 -60 0
-15 -45 -56 -60 0
-27 -31 -39 -45 0
-27 -31 -39 -56 0
-27 -31 -39 -60 0
-27 -31 -45 -56 0
-27 -31 -45 -60 0
-27 -31 -56 -60 0
-27 -39 -45 -56 0
-27 -39 -45 -60 0
-27 -39 -56 -60 0
-27 -45 -56 -60 0
-31 -39 -45 -56 0
-31 -39 -45 -60 0
-31 -39 -56 -60 0
-31 -45 -56 -60 0
-39 -45 -56 -60 0
-2 -8 -16 -23 0
-2 -8 -16 -35 0
-2 -8 -16 -40 0
-2 -8 -16 -48 0
-2 -8 -16 -56 0
-2 -8 -16 -57 0
-2 -8 -23 -35 0
-2 -8 -23 -40 0
-2 -8 -23 -48 0
-2 -8 -23 -56 0
-2 -8 -23 -57 0
-2 -8 -35 -40 0
-2 -8 -35 -48 0
-2 -8 -35 -56 0
-2 -8 -35 -57 0
-2 -8 -40 -48 0
-2 -8 -40 -56 0
-2 -8 -40 -57 0
-2 -8 -48 -56 0
-2 -8 -48 -57 0
-2 -8 -56 -57 0
-2 -16 -23 -35 0
-2 -16 -23 -40 0
-2 -16 -23 -48 0
-2 -16 -23 -56 0
-2 -16 -23 -57 0
-2 -16 -35 -40 0
-2 -16 -35 -48 0
-2 -16 -35 -56 0
-2 -16 -35 -57 0
-2 -16 -40 -48 0
-2 -16 -40 -56 0
-2 -16 -40 -57 0
-2 -16 -48 -56 0
-2 -16 -48 -57 0
-2 -16 -56 -57 0
-2 -23 -35 -40 0
-2 -23 -35 -48 0
-2 -23 -35 -56 0
-2 -23 -35 -57 0
-2 -23 -40 -48 0
-2 -23 -40 -56 0
-2 -23 -40 -57 0
-2 -23 -48 -56 0
-2 -23 -48 -57 0
-2 -23 -56 -57 0
-2 -35 -40 -48 0
-2 -35 -40 -56 0
-2 -35 -40 -57 0
-2 -35 -48 -56 0
-2 -35 -48 -57 0
-2 -35 -56 -57 0
-2 -40 -48 -56 0
-2 -40 -48 -57 0
-2 -40 -56 -57 0
-2 -48 -56 -57 0
-8 -16 -23 -35 0
-8 -16 -23 -40 0
-8 -16 -23 -48 0
-8 -16 -23 -56 0
-8 -16 -23 -57 0
-8 -16 -35 -40 0
-8 -16 -35 -48 0
-8 -16 -35 -56 0
-8 -16 -35 -57 0
-8 -16 -40 -48 0
-8 -16 -40 -56 0
-8 -16 -40 -57 0
-8 -16 -48 -56 0
-8 -16 -48 -57 0
-8 -16 -56 -57 0
-8 -23 -35 -40 0
-8 -23 -35 -48 0
-8 -23 -35 -56 0
-8 -23 -35 -57 0
-8 -23 -40 -48 0
-8 -23 -40 -56 0
-8 -23 -40 -57 0
-8 -23 -48 -56 0
-8 -23 -48 -57 0
-8 -23 -56 -57 0
-8 -35 -40 -48 0
-8 -35 -40 -56 0
-8 -35 -40 -57 0
-8 -35 -48 -56 0
-8 -35 -48 -57 0
-8 -35 -56 -57 0
-8 -40 -48 -56 0
-8 -40 -48 -57 0
-8 -40 -56 -57 0
-8 -48 -56 -57 0
-16 -23 -35 -40 0
-16 -23 -35 -48 0
-16 -23 -35 -56 0
-16 -23 -35 -57 0
-16 -23 -40 -48 0
-16 -23 -40 -56 0
-16 -23 -40 -57 0
-16 -23 -48 -56 0
-16 -23 -48 -57 0
-16 -23 -56 -57 0
-16 -35 -40 -48 0
-16 -35 -40 -56 0
-16 -35 -40 -57 0
-16 -35 -48 -56 0
-16 -35 -48 -57 0
-16 -35 -56 -57 0
-16 -40 -48 -56 0
-16 -40 -48 -57 0
-16 -40 -56 -57 0
-16 -48 -56 -57 0
-23 -35 -40 -48 0
-23 -35 -40 -56 0
-23 -35 -40 -57 0
-23 -35 -48 -56 0
-23 -35 -48 -57 0
-23 -35 -56 -57 0
-23 -40 -48 -56 0
-23 -40 -48 -57 0
-23 -40 -56 -57 0
-23 -48 -56 -57 0
-35 -40 -48 -56 0
-35 -40 -48 -57 0
-35 -40 -56 -57 0
-35 -48 -56 -57 0
-40 -48 -56 -57 0
-5 -14 -20 -22 0
-5 -14 -20 -30 0
-5 -14 -20 -41 0
-5 -14 -20 -46 0
-5 -14 -20 -54 0
-5 -14 -20 -58 0
-5 -14 -22 -30 0
-5 -14 -22 -41 0
-5 -14 -22 -46 0
-5 -14 -22 -54 0
-5 -14 -22 -58 0
-5 -14 -30 -41 0
-5 -14 -30 -46 0
-5 -14 -30 -54 0
-5 -14 -30 -58 0
-5 -14 -41 -46 0
-5 -14 -41 -54 0
-5 -14 -41 -58 0
-5 -14 -46 -54 0
-5 -14 -46 -58 0
-5 -14 -54 -58 0
-5 -20 -22 -30 0
-5 -20 -22 -41 0
-5 -20 -22 -46 0
-5 -20 -22 -54 0
-5 -20 -22 -58 0
-5 -20 -30 -41 0
-5 -20 -30 -46 0
-5 -20 -30 -54 0
-5 -20 -30 -58 0
-5 -20 -41 -46 0
-5 -20 -41 -54 0
-5 -20 -41 -58 0
-5 -20 -46 -54 0
-5 -20 -46 -58 0
-5 -20 -54 -58 0
-5 -22 -30 -41 0
-5 -22 -30 -46 0
-5 -22 -30 -54 0
-5 -22 -30 -58 0
-5 -22 -41 -46 0
-5 -22 -41 -54 0
-5 -22 -41 -58 0
-5 -22 -46 -54 0
-5 -22 -46 -58 0
-5 -22 -54 -58 0
-5 -30 -41 -46 0
-5 -30 -41 -54 0
-5 -30 -41 -58 0
-5 -30 -46 -54 0
-5 -30 -46 -58 0
-5 -30 -54 -58 0
-5 -41 -46 -54 0
-5 -41 -46 -58 0
-5 -41 -54 -58 0
-5 -46 -54 -58 0
-14 -20 -22 -30 0
-14 -20 -22 -41 0
-14 -20 -22 -46 0
-14 -20 -22 -54 0
-14 -20 -22 -58 0
-14 -20 -30 -41 0
-14 -20 -30 -46 0
-14 -20 -30 -54 0
-14 -20 -30 -58 0
-14 -20 -41 -46 0
-14 -20 -41 -54 0
-14 -20 -41 -58 0
-14 -20 -46 -54 0
-14 -20 -46 -58 0
-14 -20 -54 -58 0
-14 -22 -30 -41 0
-14 -22 -30 -46 0
-14 -22 -30 -54 0
-14 -22 -30 -58 0
-14 -22 -41 -46 0
-14 -22 -41 -54 0
-14 -22 -41 -58 0
-14 -22 -46 -54 0
-14 -22 -46 -58 0
-14 -22 -54 -58 0
-14 -30 -41 -46 0
-14 -30 -41 -54 0
-14 -30 -41 -58 0
-14 -30 -46 -54 0
-14 -30 -46 -58 0
-14 -30 -54 -58 0
-14 -41 -46 -54 0
-14 -41 -46 -58 0
-14 -41 -54 -58 0
-14 -46 -54 -58 0
-20 -22 -30 -41 0
-20 -22 -30 -46 0
-20 -22 -30 -54 0
-20 -22 -30 -58 0
-20 -22 -41 -46 0
-20 -22 -41 -54 0
-20 -22 -41 -58 0
-20 -22 -46 -54 0
-20 -22 -46 -58 0
-20 -22 -54 -58 0
-20 -30 -41 -46 0
-20 -30 -41 -54 0
-20 -30 -41 -58 0
-20 -30 -46 -54 0
-20 -30 -46 -58 0
-20 -30 -54 -58 0
-20 -41 -46 -54 0
-20 -41 -46 -58 0
-20 -41 -54 -58 0
-20 -46 -54 -58 0
-22 -30 -41 -46 0
-22 -30 -41 -54 0
-22 -30 -41 -58 0
-22 -30 -46 -54 0
-22 -30 -46 -58 0
-22 -30 -54 -58 0
-22 -41 -46 -54 0
-22 -41 -46 -58 0
-22 -41 -54 -58 0
-22 -46 -54 -58 0
-30 -41 -46 -54 0
-30 -41 -46 -58 0
-30 -41 -54 -58 0
-30 -46 -54 -58 0
-41 -46 -54 -58 0
-3 -10 -21 -22 0
-3 -10 -21 -34 0
-3 -10 -21 -39 0
-3 -10 -21 -43 0
-3 -10 -21 -56 0
-3 -10 -21 -62 0
-3 -10 -22 -34 0
-3 -10 -22 -39 0
-3 -10 -22 -43 0
-3 -10 -22 -56 0
-3 -10 -22 -62 0
-3 -10 -34 -39 0
-3 -10 -34 -43 0
-3 -10 -34 -56 0
-3 -10 -34 -62 0
-3 -10 -39 -43 0
-3 -10 -39 -56 0
-3 -10 -39 -62 0
-3 -10 -43 -56 0
-3 -10 -43 -62 0
-3 -10 -56 -62 0
-3 -21 -22 -34 0
-3 -21 -22 -39 0
-3 -21 -22 -43 0
-3 -21 -22 -56 0
-3 -21 -22 -62 0
-3 -21 -34 -39 0
-3 -21 -34 -43 0
-3 -21 -34 -56 0
-3 -21 -34 -62 0
-3 -21 -39 -43 0
-3 -21 -39 -56 0
-3 -21 -39 -62 0
-3 -21 -43 -56 0
-3 -21 -43 -62 0
-3 -21 -56 -62 0
-3 -22 -34 -39 0
-3 -22 -34 -43 0
-3 -22 -34 -56 0
-3 -22 -34 -62 0
-3 -22 -39 -43 0
-3 -22 -39 -56 0
-3 -22 -39 -62 0
-3 -22 -43 -56 0
-3 -22 -43 -62 0
-3 -22 -56 -62 0
-3 -34 -39 -43 0
-3 -34 -39 -56 0
-3 -34 -39 -62 0
-3 -34 -43 -56 0
-3 -34 -43 -62 0
-3 -34 -56 -62 0
-3 -39 -43 -56 0
-3 -39 -43 -62 0
-3 -39 -56 -62 0
-3 -43 -56 -62 0
-10 -21 -22 -34 0
-10 -21 -22 -39 0
-10 -21 -22 -43 0
-10 -21 -22 -56 0
-10 -21 -22 -62 0
-10 -21 -34 -39 0
-10 -21 -34 -43 0
-10 -21 -34 -56 0
-10 -21 -34 -62 0
-10 -21 -39 -43 0
-10 -21 -39 -56 0
-10 -21 -39 -62 0
-10 -21 -43 -56 0
-10 -21 -43 -62 0
-10 -21 -56 -62 0
-10 -22 -34 -39 0
-10 -22 -34 -43 0
-10 -22 -34 -56 0
-10 -22 -34 -62 0
-10 -22 -39 -43 0
-10 -22 -39 -56 0
-10 -22 -39 -62 0
-10 -22 -43 -56 0
-10 -22 -43 -62 0
-10 -22 -56 -62 0
-10 -34 -39 -43 0
-10 -34 -39 -56 0
-10 -34 -39 -62 0
-10 -34 -43 -56 0
-10 -34 -43 -62 0
-10 -34 -56 -62 0
-10 -39 -43 -56 0
-10 -39 -43 -62 0
-10 -39 -56 -62 0
-10 -43 -56 -62 0
-21 -22 -34 -39 0
-21 -22 -34 -43 0
-21 -22 -34 -56 0
-21 -22 -34 -62 0
-21 -22 -39 -43 0
-21 -22 -39 -56 0
-21 -22 -39 -62 0
-21 -22 -43 -56 0
-21 -22 -43 -62 0
-21 -22 -56 -62 0
-21 -34 -39 -43 0
-21 -34 -39 -56 0
-21 -34 -39 -62 0
-21 -34 -43 -56 0
-21 -34 -43 -62 0
-21 -34 -56 -62 0
-21 -39 -43 -56 0
-21 -39 -43 -62 0
-21 -39 -56 -62 0
-21 -43 -56 -62 0
-22 -34 -39 -43 0
-22 -34 -39 -56 0
-22 -34 -39 -62 0
-22 -34 -43 -56 0
-22 -34 -43 -62 0
-22 -34 -56 -62 0
-22 -39 -43 -56 0
-22 -39 -43 -62 0
-22 -39 -56 -62 0
-22 -43 -56 -62 0
-34 -39 -43 -56 0
-34 -39 -43 -62 0
-34 -39 -56 -62 0
-34 -43 -56 -62 0
-39 -43 -56 -62 0
-4 -11 -19 -22 0
-4 -11 -19 -35 0
-4 -11 -19 -36 0
-4 -11 -19 -48 0
-4 -11 -19 -53 0
-4 -11 -19 -60 0
-4 -11 -22 -35 0
-4 -11 -22 -36 0
-4 -11 -22 -48 0
-4 -11 -22 -53 0
-4 -11 -22 -60 0
-4 -11 -35 -36 0
-4 -11 -35 -48 0
-4 -11 -35 -53 0
-4 -11 -35 -60 0
-4 -11 -36 -48 0
-4 -11 -36 -53 0
-4 -11 -36 -60 0
-4 -11 -48 -53 0
-4 -11 -48 -60 0
-4 -11 -53 -60 0
-4 -19 -22 -35 0
-4 -19 -22 -36 0
-4 -19 -22 -48 0
-4 -19 -22 -53 0
-4 -19 -22 -60 0
-4 -19 -35 -36 0
-4 -19 -35 -48 0
-4 -19 -35 -53 0
-4 -19 -35 -60 0
-4 -19 -36 -48 0
-4 -19 -36 -53 0
-4 -19 -36 -60 0
-4 -19 -48 -53 0
-4 -19 -48 -60 0
-4 -19 -53 -60 0
-4 -22 -35 -36 0
-4 -22 -35 -48 0
-4 -22 -35 -53 0
-4 -22 -35 -60 0
-4 -22 -36 -48 0
-4 -22 -36 -53 0
-4 -22 -36 -60 0
-4 -22 -48 -53 0
-4 -22 -48 -60 0
-4 -22 -53 -60 0
-4 -35 -36 -48 0
-4 -35 -36 -53 0
-4 -35 -36 -60 0
-4 -35 -48 -53 0
-4 -35 -48 -60 0
-4 -35 -53 -60 0
-4 -36 -48 -53 0
-4 -36 -48 -60 0
-4 -36 -53 -60 0
-4 -48 -53 -60 0
-11 -19 -22 -35 0
-11 -19 -22 -36 0
-11 -19 -22 -48 0
-11 -19 -22 -53 0
-11 -19 -22 -60 0
-11 -19 -35 -36 0
-11 -19 -35 -48 0
-11 -19 -35 -53 0
-11 -19 -35 -60 0
-11 -19 -36 -48 0
-11 -19 -36 -53 0
-11 -19 -36 -60 0
-11 -19 -48 -53 0
-11 -19 -48 -60 0
-11 -19 -53 -60 0
-11 -22 -35 -36 0
-11 -22 -35 -48 0
-11 -22 -35 -53 0
-11 -22 -35 -60 0
-11 -22 -36 -48 0
-11 -22 -36 -53 0
-11 -22 -36 -60 0
-11 -22 -48 -53 0
-11 -22 -48 -60 0
-11 -22 -53 -60 0
-11 -35 -36 -48 0
-11 -35 -36 -53 0
-11 -35 -36 -60 0
-11 -35 -48 -53 0
-11 -35 -48 -60 0
-11 -35 -53 -60 0
-11 -36 -48 -53 0
-11 -36 -48 -60 0
-11 -36 -53 -60 0
-11 -48 -53 -60 0
-19 -22 -35 -36 0
-19 -22 -35 -48 0
-19 -22 -35 -53 0
-19 -22 -35 -60 0
-19 -22 -36 -48 0
-19 -22 -36 -53 0
-19 -22 -36 -60 0
-19 -22 -48 -53 0
-19 -22 -48 -60 0
-19 -22 -53 -60 0
-19 -35 -36 -48 0
-19 -35 -36 -53 0
-19 -35 -36 -60 0
-19 -35 -48 -53 0
-19 -35 -48 -60 0
-19 -35 -53 -60 0
-19 -36 -48 -53 0
-19 -36 -48 -60 0
-19 -36 -53 -60 0
-19 -48 -53 -60 0
-22 -35 -36 -48 0
-22 -35 -36 -53 0
-22 -35 -36 -60 0
-22 -35 -48 -53 0
-22 -35 -48 -60 0
-22 -35 -53 -60 0
-22 -36 -48 -53 0
-22 -36 -48 -60 0
-22 -36 -53 -60 0
-22 -48 -53 -60 0
-35 -36 -48 -53 0
-35 -36 -48 -60 0
-35 -36 -53 -60 0
-35 -48 -53 -60 0
-36 -48 -53 -60 0
-6 -9 -19 -22 0
-6 -9 -19 -31 0
-6 -9 -19 -37 0
-6 -9 -19 -49 0
-6 -9 -19 -50 0
-6 -9 -19 -61 0
-6 -9 -22 -31 0
-6 -9 -22 -37 0
-6 -9 -22 -49 0
-6 -9 -22 -50 0
-6 -9 -22 -61 0
-6 -9 -31 -37 0
-6 -9 -31 -49 0
-6 -9 -31 -50 0
-6 -9 -31 -61 0
-6 -9 -37 -49 0
-6 -9 -37 -50 0
-6 -9 -37 -61 0
-6 -9 -49 -50 0
-6 -9 -49 -61 0
-6 -9 -50 -61 0
-6 -19 -22 -31 0
-6 -19 -22 -37 0
-6 -19 -22 -49 0
-6 -19 -22 -50 0
-6 -19 -22 -61 0
-6 -19 -31 -37 0
-6 -19 -31 -49 0
-6 -19 -31 -50 0
-6 -19 -31 -61 0
-6 -19 -37 -49 0
-6 -19 -37 -50 0
-6 -19 -37 -61 0
-6 -19 -49 -50 0
-6 -19 -49 -61 0
-6 -19 -50 -61 0
-6 -22 -31 -37 0
-6 -22 -31 -49 0
-6 -22 -31 -50 0
-6 -22 -31 -61 0
-6 -22 -37 -49 0
-6 -22 -37 -50 0
-6 -22 -37 -61 0
-6 -22 -49 -50 0
-6 -22 -49 -61 0
-6 -22 -50 -61 0
-6 -31 -37 -49 0
-6 -31 -37 -50 0
-6 -31 -37 -61 0
-6 -31 -49 -50 0
-6 -31 -49 -61 0
-6 -31 -50 -61 0
-6 -37 -49 -50 0
-6 -37 -49 -61 0
-6 -37 -50 -61 0
-6 -49 -50 -61 0
-9 -19 -22 -31 0
-9 -19 -22 -37 0
-9 -19 -22 -49 0
-9 -19 -22 -50 0
-9 -19 -22 -61 0
-9 -19 -31 -37 0
-9 -19 -31 -49 0
-9 -19 -31 -50 0
-9 -19 -31 -61 0
-9 -19 -37 -49 0
-9 -19 -37 -50 0
-9 -19 -37 -61 0
-9 -19 -49 -50 0
-9 -19 -49 -61 0
-9 -19 -50 -61 0
-9 -22 -31 -37 0
-9 -22 -31 -49 0
-9 -22 -31 -50 0
-9 -22 -31 -61 0
-9 -22 -37 -49 0
-9 -22 -37 -50 0
-9 -22 -37 -61 0
-9 -22 -49 -50 0
-9 -22 -49 -61 0
-9 -22 -50 -61 0
-9 -31 -37 -49 0
-9 -31 -37 -50 0
-9 -31 -37 -61 0
-9 -31 -49 -50 0
-9 -31 -49 -61 0
-9 -31 -50 -61 0
-9 -37 -49 -50 0
-9 -37 -49 -61 0
-9 -37 -50 -61 0
-9 -49 -50 -61 0
-19 -22 -31 -37 0
-19 -22 -31 -49 0
-19 -22 -31 -50 0
-19 -22 -31 -61 0
-19 -22 -37 -49 0
-19 -22 -37 -50 0
-19 -22 -37 -61 0
-19 -22 -49 -50 0
-19 -22 -49 -61 0
-19 -22 -50 -61 0
-19 -31 -37 -49 0
-19 -31 -37 -50 0
-19 -31 -37 -61 0
-19 -31 -49 -50 0
-19 -31 -49 -61 0
-19 -31 -50 -61 0
-19 -37 -49 -50 0
-19 -37 -49 -61 0
-19 -37 -50 -61 0
-19 -49 -50 -61 0
-22 -31 -37 -49 0
-22 -31 -37 -50 0
-22 -31 -37 -61 0
-22 -31 -49 -50 0
-22 -31 -49 -61 0
-22 -31 -50 -61 0
-22 -37 -49 -50 0
-22 -37 -49 -61 0
-22 -37 -50 -61 0
-22 -49 -50 -61 0
-31 -37 -49 -50 0
-31 -37 -49 -61 0
-31 -37 -50 -61 0
-31 -49 -50 -61 0
-37 -49 -50 -61 0
-4 -11 -21 -25 0
-4 -11 -21 -34 0
-4 -11 -21 -38 0
-4 -11 -21 -43 0
-4 -11 -21 -50 0
-4 -11 -21 -61 0
-4 -11 -25 -34 0
-4 -11 -25 -38 0
-4 -11 -25 -43 0
-4 -11 -25 -50 0
-4 -11 -25 -61 0
-4 -11 -34 -38 0
-4 -11 -34 -43 0
-4 -11 -34 -50 0
-4 -11 -34 -61 0
-4 -11 -38 -43 0
-4 -11 -38 -50 0
-4 -11 -38 -61 0
-4 -11 -43 -50 0
-4 -11 -43 -61 0
-4 -11 -50 -61 0
-4 -21 -25 -34 0
-4 -21 -25 -38 0
-4 -21 -25 -43 0
-4 -21 -25 -50 0
-4 -21 -25 -61 0
-4 -21 -34 -38 0
-4 -21 -34 -43 0
-4 -21 -34 -50 0
-4 -21 -34 -61 0
-4 -21 -38 -43 0
-4 -21 -38 -50 0
-4 -21 -38 -61 0
-4 -21 -43 -50 0
-4 -21 -43 -61 0
-4 -21 -50 -61 0
-4 -25 -34 -38 0
-4 -25 -34 -43 0
-4 -25 -34 -50 0
-4 -25 -34 -61 0
-4 -25 -38 -43 0
-4 -25 -38 -50 0
-4 -25 -38 -61 0
-4 -25 -43 -50 0
-4 -25 -43 -61 0
-4 -25 -50 -61 0
-4 -34 -38 -43 0
-4 -34 -38 -50 0
-4 -34 -38 -61 0
-4 -34 -43 -50 0
-4 -34 -43 -61 0
-4 -34 -50 -61 0
-4 -38 -43 -50 0
-4 -38 -43 -61 0
-4 -38 -50 -61 0
-4 -43 -50 -61 0
-11 -21 -25 -34 0
-11 -21 -25 -38 0
-11 -21 -25 -43 0
-11 -21 -25 -50 0
-11 -21 -25 -61 0
-11 -21 -34 -38 0
-11 -21 -34 -43 0
-11 -21 -34 -50 0
-11 -21 -34 -61 0
-11 -21 -38 -43 0
-11 -21 -38 -50 0
-11 -21 -38 -61 0
-11 -21 -43 -50 0
-11 -21 -43 -61 0
-11 -21 -50 -61 0
-11 -25 -34 -38 0
-11 -25 -34 -43 0
-11 -25 -34 -50 0
-11 -25 -34 -61 0
-11 -25 -38 -43 0
-11 -25 -38 -50 0
-11 -25 -38 -61 0
-11 -25 -43 -50 0
-11 -25 -43 -61 0
-11 -25 -50 -61 0
-11 -34 -38 -43 0
-11 -34 -38 -50 0
-11 -34 -38 -61 0
-11 -34 -43 -50 0
-11 -34 -43 -61 0
-11 -34 -50 -61 0
-11 -38 -43 -50 0
-11 -38 -43 -61 0
-11 -38 -50 -61 0
-11 -43 -50 -61 0
-21 -25 -34 -38 0
-21 -25 -34 -43 0
-21 -25 -34 -50 0
-21 -25 -34 -61 0
-21 -25 -38 -43 0
-21 -25 -38 -50 0
-21 -25 -38 -61 0
-21 -25 -43 -50 0
-21 -25 -43 -61 0
-21 -25 -50 -61 0
-21 -34 -38 -43 0
-21 -34 -38 -50 0
-21 -34 -38 -61 0
-21 -34 -43 -50 0
-21 -34 -43 -61 0
-21 -34 -50 -61 0
-21 -38 -43 -50 0
-21 -38 -43 -61 0
-21 -38 -50 -61 0
-21 -43 -50 -61 0
-25 -34 -38 -43 0
-25 -34 -38 -50 0
-25 -34 -38 -61 0
-25 -34 -43 -50 0
-25 -34 -43 -61 0
-25 -34 -50 -61 0
-25 -38 -43 -50 0
-25 -38 -43 -61 0
-25 -38 -50 -61 0
-25 -43 -50 -61 0
-34 -38 -43 -50 0
-34 -38 -43 -61 0
-34 -38 -50 -61 0
-34 -43 -50 -61 0
-38 -43 -50 -61 0
-3 -13 -19 -27 0
-3 -13 -19 -31 0
-3 -13 -19 -41 0
-3 -13 -19 -45 0
-3 -13 -19 -56 0
-3 -13 -19 -58 0
-3 -13 -27 -31 0
-3 -13 -27 -41 0
-3 -13 -27 -45 0
-3 -13 -27 -56 0
-3 -13 -27 -58 0
-3 -13 -31 -41 0
-3 -13 -31 -45 0
-3 -13 -31 -56 0
-3 -13 -31 -58 0
-3 -13 -41 -45 0
-3 -13 -41 -56 0
-3 -13 -41 -58 0
-3 -13 -45 -56 0
-3 -13 -45 -58 0
-3 -13 -56 -58 0
-3 -19 -27 -31 0
-3 -19 -27 -41 0
-3 -19 -27 -45 0
-3 -19 -27 -56 0
-3 -19 -27 -58 0
-3 -19 -31 -41 0
-3 -19 -31 -45 0
-3 -19 -31 -56 0
-3 -19 -31 -58 0
-3 -19 -41 -45 0
-3 -19 -41 -56 0
-3 -19 -41 -58 0
-3 -19 -45 -56 0
-3 -19 -45 -58 0
-3 -19 -56 -58 0
-3 -27 -31 -41 0
-3 -27 -31 -45 0
-3 -27 -31 -56 0
-3 -27 -31 -58 0
-3 -27 -41 -45 0
-3 -27 -41 -56 0
-3 -27 -41 -58 0
-3 -27 -45 -56 0
-3 -27 -45 -58 0
-3 -27 -56 -58 0
-3 -31 -41 -45 0
-3 -31 -41 -56 0
-3 -31 -41 -58 0
-3 -31 -45 -56 0
-3 -31 -45 -58 0
-3 -31 -56 -58 0
-3 -41 -45 -56 0
-3 -41 -45 -58 0
-3 -41 -56 -58 0
-3 -45 -56 -58 0
-13 -19 -27 -31 0
-13 -19 -27 -41 0
-13 -19 -27 -45 0
-13 -19 -27 -56 0
-13 -19 -27 -58 0
-13 -19 -31 -41 0
-13 -19 -31 -45 0
-13 -19 -31 -56 0
-13 -19 -31 -58 0
-13 -19 -41 -45 0
-13 -19 -41 -56 0
-13 -19 -41 -58 0
-13 -19 -45 -56 0
-13 -19 -45 -58 0
-13 -19 -56 -58 0
-13 -27 -31 -41 0
-13 -27 -31 -45 0
-13 -27 -31 -56 0
-13 -27 -31 -58 0
-13 -27 -41 -45 0
-13 -27 -41 -56 0
-13 -27 -41 -58 0
-13 -27 -45 -56 0
-13 -27 -45 -58 0
-13 -27 -56 -58 0
-13 -31 -41 -45 0
-13 -31 -41 -56 0
-13 -31 -41 -58 0
-13 -31 -45 -56 0
-13 -31 -45 -58 0
-13 -31 -56 -58 0
-13 -41 -45 -56 0
-13 -41 -45 -58 0
-13 -41 -56 -58 0
-13 -45 -56 -58 0
-19 -27 -31 -41 0
-19 -27 -31 -45 0
-19 -27 -31 -56 0
-19 -27 -31 -58 0
-19 -27 -41 -45 0
-19 -27 -41 -56 0
-19 -27 -41 -58 0
-19 -27 -45 -56 0
-19 -27 -45 -58 0
-19 -27 -56 -58 0
-19 -31 -41 -45 0
-19 -31 -41 -56 0
-19 -31 -41 -58 0
-19 -31 -45 -56 0
-19 -31 -45 -58 0
-19 -31 -56 -58 0
-19 -41 -45 -56 0
-19 -41 -45 -58 0
-19 -41 -56 -58 0
-19 -45 -56 -58 0
-27 -31 -41 -45 0
-27 -31 -41 -56 0
-27 -31 -41 -58 0
-27 -31 -45 -56 0
-27 -31 -45 -58 0
-27 -31 -56 -58 0
-27 -41 -45 -56 0
-27 -41 -45 -58 0
-27 -41 -56 -58 0
-27 -45 -56 -58 0
-31 -41 -45 -56 0
-31 -41 -45 -58 0
-31 -41 -56 -58 0
-31 -45 -56 -58 0
-41 -45 -56 -58 0
-2 -11 -18 -28 0
-2 -11 -18 -32 0
-2 -11 -18 -41 0
-2 -11 -18 -43 0
-2 -11 -18 -52 0
-2 -11 -18 -59 0
-2 -11 -28 -32 0
-2 -11 -28 -41 0
-2 -11 -28 -43 0
-2 -11 -28 -52 0
-2 -11 -28 -59 0
-2 -11 -32 -41 0
-2 -11 -32 -43 0
-2 -11 -32 -52 0
-2 -11 -32 -59 0
-2 -11 -41 -43 0
-2 -11 -41 -52 0
-2 -11 -41 -59 0
-2 -11 -43 -52 0
-2 -11 -43 -59 0
-2 -11 -52 -59 0
-2 -18 -28 -32 0
-2 -18 -28 -41 0
-2 -18 -28 -43 0
-2 -18 -28 -52 0
-2 -18 -28 -59 0
-2 -18 -32 -41 0
-2 -18 -32 -43 0
-2 -18 -32 -52 0
-2 -18 -32 -59 0
-2 -18 -41 -43 0
-2 -18 -41 -52 0
-2 -18 -41 -59 0
-2 -18 -43 -52 0
-2 -18 -43 -59 0
-2 -18 -52 -59 0
-2 -28 -32 -41 0
-2 -28 -32 -43 0
-2 -28 -32 -52 0
-2 -28 -32 -59 0
-2 -28 -41 -43 0
-2 -28 -41 -52 0
-2 -28 -41 -59 0
-2 -28 -43 -52 0
-2 -28 -43 -59 0
-2 -28 -52 -59 0
-2 -32 -41 -43 0
-2 -32 -41 -52 0
-2 -32 -41 -59 0
-2 -32 -43 -52 0
-2 -32 -43 -59 0
-2 -32 -52 -59 0
-2 -41 -43 -52 0
-2 -41 -43 -59 0
-2 -41 -52 -59 0
-2 -43 -52 -59 0
-11 -18 -28 -32 0
-11 -18 -28 -41 0
-11 -18 -28 -43 0
-11 -18 -28 -52 0
-11 -18 -28 -59 0
-11 -18 -32 -41 0
-11 -18 -32 -43 0
-11 -18 -32 -52 0
-11 -18 -32 -59 0
-11 -18 -41 -43 0
-11 -18 -41 -52 0
-11 -18 -41 -59 0
-11 -18 -43 -52 0
-11 -18 -43 -59 0
-11 -18 -52 -59 0
-11 -28 -32 -41 0
-11 -28 -32 -43 0
-11 -28 -32 -52 0
-11 -28 -32 -59 0
-11 -28 -41 -43 0
-11 -28 -41 -52 0
-11 -28 -41 -59 0
-11 -28 -43 -52 0
-11 -28 -43 -59 0
-11 -28 -52 -59 0
-11 -32 -41 -43 0
-11 -32 -41 -52 0
-11 -32 -41 -59 0
-11 -32 -43 -52 0
-11 -32 -43 -59 0
-11 -32 -52 -59 0
-11 -41 -43 -52 0
-11 -41 -43 -59 0
-11 -41 -52 -59 0
-11 -43 -52 -59 0
-18 -28 -32 -41 0
-18 -28 -32 -43 0
-18 -28 -32 -52 0
-18 -28 -32 -59 0
-18 -28 -41 -43 0
-18 -28 -41 -52 0
-18 -28 -41 -59 0
-18 -28 -43 -52 0
-18 -28 -43 -59 0
-18 -28 -52 -59 0
-18 -32 -41 -43 0
-18 -32 -41 -52 0
-18 -32 -41 -59 0
-18 -32 -43 -52 0
-18 -32 -43 -59 0
-18 -32 -52 -59 0
-18 -41 -43 -52 0
-18 -41 -43 -59 0
-18 -41 -52 -59 0
-18 -43 -52 -59 0
-28 -32 -41 -43 0
-28 -32 -41 -52 0
-28 -32 -41 -59 0
-28 -32 -43 -52 0
-28 -32 -43 -59 0
-28 -32 -52 -59 0
-28 -41 -43 -52 0
-28 -41 -43 -59 0
-28 -41 -52 -59 0
-28 -43 -52 -59 0
-32 -41 -43 -52 0
-32 -41 -43 -59 0
-32 -41 -52 -59 0
-32 -43 -52 -59 0
-41 -43 -52 -59 0
-3 -10 -16 -26 0
-3 -10 -16 -29 0
-3 -10 -16 -38 0
-3 -10 -16 -48 0
-3 -10 -16 -54 0
-3 -10 -16 -59 0
-3 -10 -26 -29 0
-3 -10 -26 -38 0
-3 -10 -26 -48 0
-3 -10 -26 -54 0
-3 -10 -26 -59 0
-3 -10 -29 -38 0
-3 -10 -29 -48 0
-3 -10 -29 -54 0
-3 -10 -29 -59 0
-3 -10 -38 -48 0
-3 -10 -38 -54 0
-3 -10 -38 -59 0
-3 -10 -48 -54 0
-3 -10 -48 -59 0
-3 -10 -54 -59 0
-3 -16 -26 -29 0
-3 -16 -26 -38 0
-3 -16 -26 -48 0
-3 -16 -26 -54 0
-3 -16 -26 -59 0
-3 -16 -29 -38 0
-3 -16 -29 -48 0
-3 -16 -29 -54 0
-3 -16 -29 -59 0
-3 -16 -38 -48 0
-3 -16 -38 -54 0
-3 -16 -38 -59 0
-3 -16 -48 -54 0
-3 -16 -48 -59 0
-3 -16 -54 -59 0
-3 -26 -29 -38 0
-3 -26 -29 -48 0
-3 -26 -29 -54 0
-3 -26 -29 -59 0
-3 -26 -38 -48 0
-3 -26 -38 -54 0
-3 -26 -38 -59 0
-3 -26 -48 -54 0
-3 -26 -48 -59 0
-3 -26 -54 -59 0
-3 -29 -38 -48 0
-3 -29 -38 -54 0
-3 -29 -38 -59 0
-3 -29 -48 -54 0
-3 -29 -48 -59 0
-3 -29 -54 -59 0
-3 -38 -48 -54 0
-3 -38 -48 -59 0
-3 -38 -54 -59 0
-3 -48 -54 -59 0
-10 -16 -26 -29 0
-10 -16 -26 -38 0
-10 -16 -26 -48 0
-10 -16 -26 -54 0
-10 -16 -26 -59 0
-10 -16 -29 -38 0
-10 -16 -29 -48 0
-10 -16 -29 -54 0
-10 -16 -29 -59 0
-10 -16 -38 -48 0
-10 -16 -38 -54 0
-10 -16 -38 -59 0
-10 -16 -48 -54 0
-10 -16 -48 -59 0
-10 -16 -54 -59 0
-10 -26 -29 -38 0
-10 -26 -29 -48 0
-10 -26 -29 -54 0
-10 -26 -29 -59 0
-10 -26 -38 -48 0
-10 -26 -38 -54 0
-10 -26 -38 -59 0
-10 -26 -48 -54 0
-10 -26 -48 -59 0
-10 -26 -54 -59 0
-10 -29 -38 -48 0
-10 -29 -38 -54 0
-10 -29 -38 -59 0
-10 -29 -48 -54 0
-10 -29 -48 -59 0
-10 -29 -54 -59 0
-10 -38 -48 -54 0
-10 -38 -48 -59 0
-10 -38 -54 -59 0
-10 -48 -54 -59 0
-16 -26 -29 -38 0
-16 -26 -29 -48 0
-16 -26 -29 -54 0
-16 -26 -29 -59 0
-16 -26 -38 -48 0
-16 -26 -38 -54 0
-16 -26 -38 -59 0
-16 -26 -48 -54 0
-16 -26 -48 -59 0
-16 -26 -54 -59 0
-16 -29 -38 -48 0
-16 -29 -38 -54 0
-16 -29 -38 -59 0
-16 -29 -48 -54 0
-16 -29 -48 -59 0
-16 -29 -54 -59 0
-16 -38 -48 -54 0
-16 -38 -48 -59 0
-16 -38 -54 -59 0
-16 -48 -54 -59 0
-26 -29 -38 -48 0
-26 -29 -38 -54 0
-26 -29 -38 -59 0
-26 -29 -48 -54 0
-26 -29 -48 -59 0
-26 -29 -54 -59 0
-26 -38 -48 -54 0
-26 -38 -48 -59 0
-26 -38 -54 -59 0
-26 -48 -54 -59 0
-29 -38 -48 -54 0
-29 -38 -48 -59 0
-29 -38 -54 -59 0
-29 -48 -54 -59 0
-38 -48 -54 -59 0
-5 -14 -15 -26 0
-5 -14 -15 -31 0
-5 -14 -15 -41 0
-5 -14 -15 -43 0
-5 -14 -15 -56 0
-5 -14 -15 -63 0
-5 -14 -26 -31 0
-5 -14 -26 -41 0
-5 -14 -26 -43 0
-5 -14 -26 -56 0
-5 -14 -26 -63 0
-5 -14 -31 -41 0
-5 -14 -31 -43 0
-5 -14 -31 -56 0
-5 -14 -31 -63 0
-5 -14 -41 -43 0
-5 -14 -41 -56 0
-5 -14 -41 -63 0
-5 -14 -43 -56 0
-5 -14 -43 -63 0
-5 -14 -56 -63 0
-5 -15 -26 -31 0
-5 -15 -26 -41 0
-5 -15 -26 -43 0
-5 -15 -26 -56 0
-5 -15 -26 -63 0
-5 -15 -31 -41 0
-5 -15 -31 -43 0
-5 -15 -31 -56 0
-5 -15 -31 -63 0
-5 -15 -41 -43 0
-5 -15 -41 -56 0
-5 -15 -41 -63 0
-5 -15 -43 -56 0
-5 -15 -43 -63 0
-5 -15 -56 -63 0
-5 -26 -31 -41 0
-5 -26 -31 -43 0
-5 -26 -31 -56 0
-5 -26 -31 -63 0
-5 -26 -41 -43 0
-5 -26 -41 -56 0
-5 -26 -41 -63 0
-5 -26 -43 -56 0
-5 -26 -43 -63 0
-5 -26 -56 -63 0
-5 -31 -41 -43 0
-5 -31 -41 -56 0
-5 -31 -41 -63 0
-5 -31 -43 -56 0
-5 -31 -43 -63 0
-5 -31 -56 -63 0
-5 -41 -43 -56 0
-5 -41 -43 -63 0
-5 -41 -56 -63 0
-5 -43 -56 -63 0
-14 -15 -26 -31 0
-14 -15 -26 -41 0
-14 -15 -26 -43 0
-14 -15 -26 -56 0
-14 -15 -26 -63 0
-14 -15 -31 -41 0
-14 -15 -31 -43 0
-14 -15 -31 -56 0
-14 -15 -31 -63 0
-14 -15 -41 -43 0
-14 -15 -41 -56 0
-14 -15 -41 -63 0
-14 -15 -43 -56 0
-14 -15 -43 -63 0
-14 -15 -56 -63 0
-14 -26 -31 -41 0
-14 -26 -31 -43 0
-14 -26 -31 -56 0
-14 -26 -31 -63 0
-14 -26 -41 -43 0
-14 -26 -41 -56 0
-14 -26 -41 -63 0
-14 -26 -43 -56 0
-14 -26 -43 -63 0
-14 -26 -56 -63 0
-14 -31 -41 -43 0
-14 -31 -41 -56 0
-14 -31 -41 -63 0
-14 -31 -43 -56 0
-14 -31 -43 -63 0
-14 -31 -56 -63 0
-14 -41 -43 -56 0
-14 -41 -43 -63 0
-14 -41 -56 -63 0
-14 -43 -56 -63 0
-15 -26 -31 -41 0
-15 -26 -31 -43 0
-15 -26 -31 -56 0
-15 -26 -31 -63 0
-15 -26 -41 -43 0
-15 -26 -41 -56 0
-15 -26 -41 -63 0
-15 -26 -43 -56 0
-15 -26 -43 -63 0
-15 -26 -56 -63 0
-15 -31 -41 -43 0
-15 -31 -41 -56 0
-15 -31 -41 -63 0
-15 -31 -43 -56 0
-15 -31 -43 -63 0
-15 -31 -56 -63 0
-15 -41 -43 -56 0
-15 -41 -43 -63 0
-15 -41 -56 -63 0
-15 -43 -56 -63 0
-26 -31 -41 -43 0
-26 -31 -41 -56 0
-26 -31 -41 -63 0
-26 -31 -43 -56 0
-26 -31 -43 -63 0
-26 -31 -56 -63 0
-26 -41 -43 -56 0
-26 -41 -43 -63 0
-26 -41 -56 -63 0
-26 -43 -56 -63 0
-31 -41 -43 -56 0
-31 -41 -43 -63 0
-31 -41 -56 -63 0
-31 -43 -56 -63 0
-41 -43 -56 -63 0
-3 -12 -19 -25 0
-3 -12 -19 -30 0
-3 -12 -19 -37 0
-3 -12 -19 -43 0
-3 -12 -19 -51 0
-3 -12 -19 -60 0
-3 -12 -25 -30 0
-3 -12 -25 -37 0
-3 -12 -25 -43 0
-3 -12 -25 -51 0
-3 -12 -25 -60 0
-3 -12 -30 -37 0
-3 -12 -30 -43 0
-3 -12 -30 -51 0
-3 -12 -30 -60 0
-3 -12 -37 -43 0
-3 -12 -37 -51 0
-3 -12 -37 -60 0
-3 -12 -43 -51 0
-3 -12 -43 -60 0
-3 -12 -51 -60 0
-3 -19 -25 -30 0
-3 -19 -25 -37 0
-3 -19 -25 -43 0
-3 -19 -25 -51 0
-3 -19 -25 -60 0
-3 -19 -30 -37 0
-3 -19 -30 -43 0
-3 -19 -30 -51 0
-3 -19 -30 -60 0
-3 -19 -37 -43 0
-3 -19 -37 -51 0
-3 -19 -37 -60 0
-3 -19 -43 -51 0
-3 -19 -43 -60 0
-3 -19 -51 -60 0
-3 -25 -30 -37 0
-3 -25 -30 -43 0
-3 -25 -30 -51 0
-3 -25 -30 -60 0
-3 -25 -37 -43 0
-3 -25 -37 -51 0
-3 -25 -37 -60 0
-3 -25 -43 -51 0
-3 -25 -43 -60 0
-3 -25 -51 -60 0
-3 -30 -37 -43 0
-3 -30 -37 -51 0
-3 -30 -37 -60 0
-3 -30 -43 -51 0
-3 -30 -43 -60 0
-3 -30 -51 -60 0
-3 -37 -43 -51 0
-3 -37 -43 -60 0
-3 -37 -51 -60 0
-3 -43 -51 -60 0
-12 -19 -25 -30 0
-12 -19 -25 -37 0
-12 -19 -25 -43 0
-12 -19 -25 -51 0
-12 -19 -25 -60 0
-12 -19 -30 -37 0
-12 -19 -30 -43 0
-12 -19 -30 -51 0
-12 -19 -30 -60 0
-12 -19 -37 -43 0
-12 -19 -37 -51 0
-12 -19 -37 -60 0
-12 -19 -43 -51 0
-12 -19 -43 -60 0
-12 -19 -51 -60 0
-12 -25 -30 -37 0
-12 -25 -30 -43 0
-12 -25 -30 -51 0
-12 -25 -30 -60 0
-12 -25 -37 -43 0
-12 -25 -37 -51 0
-12 -25 -37 -60 0
-12 -25 -43 -51 0
-12 -25 -43 -60 0
-12 -25 -51 -60 0
-12 -30 -37 -43 0
-12 -30 -37 -51 0
-12 -30 -37 -60 0
-12 -30 -43 -51 0
-12 -30 -43 -60 0
-12 -30 -51 -60 0
-12 -37 -43 -51 0
-12 -37 -43 -60 0
-12 -37 -51 -60 0
-12 -43 -51 -60 0
-19 -25 -30 -37 0
-19 -25 -30 -43 0
-19 -25 -30 -51 0
-19 -25 -30 -60 0
-19 -25 -37 -43 0
-19 -25 -37 -51 0
-19 -25 -37 -60 0
-19 -25 -43 -51 0
-19 -25 -43 -60 0
-19 -25 -51 -60 0
-19 -30 -37 -43 0
-19 -30 -37 -51 0
-19 -30 -37 -60 0
-19 -30 -43 -51 0
-19 -30 -43 -60 0
-19 -30 -51 -60 0
-19 -37 -43 -51 0
-19 -37 -43 -60 0
-19 -37 -51 -60 0
-19 -43 -51 -60 0
-25 -30 -37 -43 0
-25 -30 -37 -51 0
-25 -30 -37 -60 0
-25 -30 -43 -51 0
-25 -30 -43 -60 0
-25 -30 -51 -60 0
-25 -37 -43 -51 0
-25 -37 -43 -60 0
-25 -37 -51 -60 0
-25 -43 -51 -60 0
-30 -37 -43 -51 0
-30 -37 -43 -60 0
-30 -37 -51 -60 0
-30 -43 -51 -60 0
-37 -43 -51 -60 0
-6 -10 -16 -28 0
-6 -10 -16 -34 0
-6 -10 -16 -38 0
-6 -10 -16 -43 0
-6 -10 -16 -52 0
-6 -10 -16 -59 0
-6 -10 -28 -34 0
-6 -10 -28 -38 0
-6 -10 -28 -43 0
-6 -10 -28 -52 0
-6 -10 -28 -59 0
-6 -10 -34 -38 0
-6 -10 -34 -43 0
-6 -10 -34 -52 0
-6 -10 -34 -59 0
-6 -10 -38 -43 0
-6 -10 -38 -52 0
-6 -10 -38 -59 0
-6 -10 -43 -52 0
-6 -10 -43 -59 0
-6 -10 -52 -59 0
-6 -16 -28 -34 0
-6 -16 -28 -38 0
-6 -16 -28 -43 0
-6 -16 -28 -52 0
-6 -16 -28 -59 0
-6 -16 -34 -38 0
-6 -16 -34 -43 0
-6 -16 -34 -52 0
-6 -16 -34 -59 0
-6 -16 -38 -43 0
-6 -16 -38 -52 0
-6 -16 -38 -59 0
-6 -16 -43 -52 0
-6 -16 -43 -59 0
-6 -16 -52 -59 0
-6 -28 -34 -38 0
-6 -28 -34 -43 0
-6 -28 -34 -52 0
-6 -28 -34 -59 0
-6 -28 -38 -43 0
-6 -28 -38 -52 0
-6 -28 -38 -59 0
-6 -28 -43 -52 0
-6 -28 -43 -59 0
-6 -28 -52 -59 0
-6 -34 -38 -43 0
-6 -34 -38 -52 0
-6 -34 -38 -59 0
-6 -34 -43 -52 0
-6 -34 -43 -59 0
-6 -34 -52 -59 0
-6 -38 -43 -52 0
-6 -38 -43 -59 0
-6 -38 -52 -59 0
-6 -43 -52 -59 0
-10 -16 -28 -34 0
-10 -16 -28 -38 0
-10 -16 -28 -43 0
-10 -16 -28 -52 0
-10 -16 -28 -59 0
-10 -16 -34 -38 0
-10 -16 -34 -43 0
-10 -16 -34 -52 0
-10 -16 -34 -59 0
-10 -16 -38 -43 0
-10 -16 -38 -52 0
-10 -16 -38 -59 0
-10 -16 -43 -52 0
-10 -16 -43 -59 0
-10 -16 -52 -59 0
-10 -28 -34 -38 0
-10 -28 -34 -43 0
-10 -28 -34 -52 0
-10 -28 -34 -59 0
-10 -28 -38 -43 0
-10 -28 -38 -52 0
-10 -28 -38 -59 0
-10 -28 -43 -52 0
-10 -28 -43 -59 0
-10 -28 -52 -59 0
-10 -34 -38 -43 0
-10 -34 -38 -52 0
-10 -34 -38 -59 0
-10 -34 -43 -52 0
-10 -34 -43 -59 0
-10 -34 -52 -59 0
-10 -38 -43 -52 0
-10 -38 -43 -59 0
-10 -38 -52 -59 0
-10 -43 -52 -59 0
-16 -28 -34 -38 0
-16 -28 -34 -43 0
-16 -28 -34 -52 0
-16 -28 -34 -59 0
-16 -28 -38 -43 0
-16 -28 -38 -52 0
-16 -28 -38 -59 0
-16 -28 -43 -52 0
-16 -28 -43 -59 0
-16 -28 -52 -59 0
-16 -34 -38 -43 0
-16 -34 -38 -52 0
-16 -34 -38 -59 0
-16 -34 -43 -52 0
-16 -34 -43 -59 0
-16 -34 -52 -59 0
-16 -38 -43 -52 0
-16 -38 -43 -59 0
-16 -38 -52 -59 0
-16 -43 -52 -59 0
-28 -34 -38 -43 0
-28 -34 -38 -52 0
-28 -34 -38 -59 0
-28 -34 -43 -52 0
-28 -34 -43 -59 0
-28 -34 -52 -59 0
-28 -38 -43 -52 0
-28 -38 -43 -59 0
-28 -38 -52 -59 0
-28 -43 -52 -59 0
-34 -38 -43 -52 0
-34 -38 -43 -59 0
-34 -38 -52 -59 0
-34 -43 -52 -59 0
-38 -43 -52 -59 0
-5 -12 -21 -22 0
-5 -12 -21 -31 0
-5 -12 -21 -38 0
-5 -12 -21 -47 0
-5 -12 -21 -51 0
-5 -12 -21 -59 0
-5 -12 -22 -31 0
-5 -12 -22 -38 0
-5 -12 -22 -47 0
-5 -12 -22 -51 0
-5 -12 -22 -59 0
-5 -12 -31 -38 0
-5 -12 -31 -47 0
-5 -12 -31 -51 0
-5 -12 -31 -59 0
-5 -12 -38 -47 0
-5 -12 -38 -51 0
-5 -12 -38 -59 0
-5 -12 -47 -51 0
-5 -12 -47 -59 0
-5 -12 -51 -59 0
-5 -21 -22 -31 0
-5 -21 -22 -38 0
-5 -21 -22 -47 0
-5 -21 -22 -51 0
-5 -21 -22 -59 0
-5 -21 -31 -38 0
-5 -21 -31 -47 0
-5 -21 -31 -51 0
-5 -21 -31 -59 0
-5 -21 -38 -47 0
-5 -21 -38 -51 0
-5 -21 -38 -59 0
-5 -21 -47 -51 0
-5 -21 -47 -59 0
-5 -21 -51 -59 0
-5 -22 -31 -38 0
-5 -22 -31 -47 0
-5 -22 -31 -51 0
-5 -22 -31 -59 0
-5 -22 -38 -47 0
-5 -22 -38 -51 0
-5 -22 -38 -59 0
-5 -22 -47 -51 0
-5 -22 -47 -59 0
-5 -22 -51 -59 0
-5 -31 -38 -47 0
-5 -31 -38 -51 0
-5 -31 -38 -59 0
-5 -31 -47 -51 0
-5 -31 -47 -59 0
-5 -31 -51 -59 0
-5 -38 -47 -51 0
-5 -38 -47 -59 0
-5 -38 -51 -59 0
-5 -47 -51 -59 0
-12 -21 -22 -31 0
-12 -21 -22 -38 0
-12 -21 -22 -47 0
-12 -21 -22 -51 0
-12 -21 -22 -59 0
-12 -21 -31 -38 0
-12 -21 -31 -47 0
-12 -21 -31 -51 0
-12 -21 -31 -59 0
-12 -21 -38 -47 0
-12 -21 -38 -51 0
-12 -21 -38 -59 0
-12 -21 -47 -51 0
-12 -21 -47 -59 0
-12 -21 -51 -59 0
-12 -22 -31 -38 0
-12 -22 -31 -47 0
-12 -22 -31 -51 0
-12 -22 -31 -59 0
-12 -22 -38 -47 0
-12 -22 -38 -51 0
-12 -22 -38 -59 0
-12 -22 -47 -51 0
-12 -22 -47 -59 0
-12 -22 -51 -59 0
-12 -31 -38 -47 0
-12 -31 -38 -51 0
-12 -31 -38 -59 0
-12 -31 -47 -51 0
-12 -31 -47 -59 0
-12 -31 -51 -59 0
-12 -38 -47 -51 0
-12 -38 -47 -59 0
-12 -38 -51 -59 0
-12 -47 -51 -59 0
-21 -22 -31 -38 0
-21 -22 -31 -47 0
-21 -22 -31 -51 0
-21 -22 -31 -59 0
-21 -22 -38 -47 0
-21 -22 -38 -51 0
-21 -22 -38 -59 0
-21 -22 -47 -51 0
-21 -22 -47 -59 0
-21 -22 -51 -59 0
-21 -31 -38 -47 0
-21 -31 -38 -51 0
-21 -31 -38 -59 0
-21 -31 -47 -51 0
-21 -31 -47 -59 0
-21 -31 -51 -59 0
-21 -38 -47 -51 0
-21 -38 -47 -59 0
-21 -38 -51 -59 0
-21 -47 -51 -59 0
-22 -31 -38 -47 0
-22 -31 -38 -51 0
-22 -31 -38 -59 0
-22 -31 -47 -51 0
-22 -31 -47 -59 0
-22 -31 -51 -59 0
-22 -38 -47 -51 0
-22 -38 -47 -59 0
-22 -38 -51 -59 0
-22 -47 -51 -59 0
-31 -38 -47 -51 0
-31 -38 -47 -59 0
-31 -38 -51 -59 0
-31 -47 -51 -59 0
-38 -47 -51 -59 0
-6 -13 -20 -23 0
-6 -13 -20 -29 0
-6 -13 -20 -36 0
-6 -13 -20 -48 0
-6 -13 -20 -50 0
-6 -13 -20 -59 0
-6 -13 -23 -29 0
-6 -13 -23 -36 0
-6 -13 -23 -48 0
-6 -13 -23 -50 0
-6 -13 -23 -59 0
-6 -13 -29 -36 0
-6 -13 -29 -48 0
-6 -13 -29 -50 0
-6 -13 -29 -59 0
-6 -13 -36 -48 0
-6 -13 -36 -50 0
-6 -13 -36 -59 0
-6 -13 -48 -50 0
-6 -13 -48 -59 0
-6 -13 -50 -59 0
-6 -20 -23 -29 0
-6 -20 -23 -36 0
-6 -20 -23 -48 0
-6 -20 -23 -50 0
-6 -20 -23 -59 0
-6 -20 -29 -36 0
-6 -20 -29 -48 0
-6 -20 -29 -50 0
-6 -20 -29 -59 0
-6 -20 -36 -48 0
-6 -20 -36 -50 0
-6 -20 -36 -59 0
-6 -20 -48 -50 0
-6 -20 -48 -59 0
-6 -20 -50 -59 0
-6 -23 -29 -36 0
-6 -23 -29 -48 0
-6 -23 -29 -50 0
-6 -23 -29 -59 0
-6 -23 -36 -48 0
-6 -23 -36 -50 0
-6 -23 -36 -59 0
-6 -23 -48 -50 0
-6 -23 -48 -59 0
-6 -23 -50 -59 0
-6 -29 -36 -48 0
-6 -29 -36 -50 0
-6 -29 -36 -59 0
-6 -29 -48 -50 0
-6 -29 -48 -59 0
-6 -29 -50 -59 0
-6 -36 -48 -50 0
-6 -36 -48 -59 0
-6 -36 -50 -59 0
-6 -48 -50 -59 0
-13 -20 -23 -29 0
-13 -20 -23 -36 0
-13 -20 -23 -48 0
-13 -20 -23 -50 0
-13 -20 -23 -59 0
-13 -20 -29 -36 0
-13 -20 -29 -48 0
-13 -20 -29 -50 0
-13 -20 -29 -59 0
-13 -20 -36 -48 0
-13 -20 -36 -50 0
-13 -20 -36 -59 0
-13 -20 -48 -50 0
-13 -20 -48 -59 0
-13 -20 -50 -59 0
-13 -23 -29 -36 0
-13 -23 -29 -48 0
-13 -23 -29 -50 0
-13 -23 -29 -59 0
-13 -23 -36 -48 0
-13 -23 -36 -50 0
-13 -23 -36 -59 0
-13 -23 -48 -50 0
-13 -23 -48 -59 0
-13 -23 -50 -59 0
-13 -29 -36 -48 0
-13 -29 -36 -50 0
-13 -29 -36 -59 0
-13 -29 -48 -50 0
-13 -29 -48 -59 0
-13 -29 -50 -59 0
-13 -36 -48 -50 0
-13 -36 -48 -59 0
-13 -36 -50 -59 0
-13 -48 -50 -59 0
-20 -23 -29 -36 0
-20 -23 -29 -48 0
-20 -23 -29 -50 0
-20 -23 -29 -59 0
-20 -23 -36 -48 0
-20 -23 -36 -50 0
-20 -23 -36 -59 0
-20 -23 -48 -50 0
-20 -23 -48 -59 0
-20 -23 -50 -59 0
-20 -29 -36 -48 0
-20 -29 -36 -50 0
-20 -29 -36 -59 0
-20 -29 -48 -50 0
-20 -29 -48 -59 0
-20 -29 -50 -59 0
-20 -36 -48 -50 0
-20 -36 -48 -59 0
-20 -36 -50 -59 0
-20 -48 -50 -59 0
-23 -29 -36 -48 0
-23 -29 -36 -50 0
-23 -29 -36 -59 0
-23 -29 -48 -50 0
-23 -29 -48 -59 0
-23 -29 -50 -59 0
-23 -36 -48 -50 0
-23 -36 -48 -59 0
-23 -36 -50 -59 0
-23 -48 -50 -59 0
-29 -36 -48 -50 0
-29 -36 -48 -59 0
-29 -36 -50 -59 0
-29 -48 -50 -59 0
-36 -48 -50 -59 0
-1 -9 -16 -26 0
-1 -9 -16 -31 0
-1 -9 -16 -37 0
-1 -9 -16 -43 0
-1 -9 -16 -56 0
-1 -9 -16 -62 0
-1 -9 -26 -31 0
-1 -9 -26 -37 0
-1 -9 -26 -43 0
-1 -9 -26 -56 0
-1 -9 -26 -62 0
-1 -9 -31 -37 0
-1 -9 -31 -43 0
-1 -9 -31 -56 0
-1 -9 -31 -62 0
-1 -9 -37 -43 0
-1 -9 -37 -56 0
-1 -9 -37 -62 0
-1 -9 -43 -56 0
-1 -9 -43 -62 0
-1 -9 -56 -62 0
-1 -16 -26 -31 0
-1 -16 -26 -37 0
-1 -16 -26 -43 0
-1 -16 -26 -56 0
-1 -16 -26 -62 0
-1 -16 -31 -37 0
-1 -16 -31 -43 0
-1 -16 -31 -56 0
-1 -16 -31 -62 0
-1 -16 -37 -43 0
-1 -16 -37 -56 0
-1 -16 -37 -62 0
-1 -16 -43 -56 0
-1 -16 -43 -62 0
-1 -16 -56 -62 0
-1 -26 -31 -37 0
-1 -26 -31 -43 0
-1 -26 -31 -56 0
-1 -26 -31 -62 0
-1 -26 -37 -43 0
-1 -26 -37 -56 0
-1 -26 -37 -62 0
-1 -26 -43 -56 0
-1 -26 -43 -62 0
-1 -26 -56 -62 0
-1 -31 -37 -43 0
-1 -31 -37 -56 0
-1 -31 -37 -62 0
-1 -31 -43 -56 0
-1 -31 -43 -62 0
-1 -31 -56 -62 0
-1 -37 -43 -56 0
-1 -37 -43 -62 0
-1 -37 -56 -62 0
-1 -43 -56 -62 0
-9 -16 -26 -31 0
-9 -16 -26 -37 0
-9 -16 -26 -43 0
-9 -16 -26 -56 0
-9 -16 -26 -62 0
-9 -16 -31 -37 0
-9 -16 -31 -43 0
-9 -16 -31 -56 0
-9 -16 -31 -62 0
-9 -16 -37 -43 0
-9 -16 -37 -56 0
-9 -16 -37 -62 0
-9 -16 -43 -56 0
-9 -16 -43 -62 0
-9 -16 -56 -62 0
-9 -26 -31 -37 0
-9 -26 -31 -43 0
-9 -26 -31 -56 0
-9 -26 -31 -62 0
-9 -26 -37 -43 0
-9 -26 -37 -56 0
-9 -26 -37 -62 0
-9 -26 -43 -56 0
-9 -26 -43 -62 0
-9 -26 -56 -62 0
-9 -31 -37 -43 0
-9 -31 -37 -56 0
-9 -31 -37 -62 0
-9 -31 -43 -56 0
-9 -31 -43 -62 0
-9 -31 -56 -62 0
-9 -37 -43 -56 0
-9 -37 -43 -62 0
-9 -37 -56 -62 0
-9 -43 -56 -62 0
-16 -26 -31 -37 0
-16 -26 -31 -43 0
-16 -26 -31 -56 0
-16 -26 -31 -62 0
-16 -26 -37 -43 0
-16 -26 -37 -56 0
-16 -26 -37 -62 0
-16 -26 -43 -56 0
-16 -26 -43 -62 0
-16 -26 -56 -62 0
-16 -31 -37 -43 0
-16 -31 -37 -56 0
-16 -31 -37 -62 0
-16 -31 -43 -56 0
-16 -31 -43 -62 0
-16 -31 -56 -62 0
-16 -37 -43 -56 0
-16 -37 -43 -62 0
-16 -37 -56 -62 0
-16 -43 -56 -62 0
-26 -31 -37 -43 0
-26 -31 -37 -56 0
-26 -31 -37 -62 0
-26 -31 -43 -56 0
-26 -31 -43 -62 0
-26 -31 -56 -62 0
-26 -37 -43 -56 0
-26 -37 -43 -62 0
-26 -37 -56 -62 0
-26 -43 -56 -62 0
-31 -37 -43 -56 0
-31 -37 -43 -62 0
-31 -37 -56 -62 0
-31 -43 -56 -62 0
-37 -43 -56 -62 0
-1 -12 -20 -22 0
-1 -12 -20 -30 0
-1 -12 -20 -40 0
-1 -12 -20 -47 0
-1 -12 -20 -52 0
-1 -12 -20 -61 0
-1 -12 -22 -30 0
-1 -12 -22 -40 0
-1 -12 -22 -47 0
-1 -12 -22 -52 0
-1 -12 -22 -61 0
-1 -12 -30 -40 0
-1 -12 -30 -47 0
-1 -12 -30 -52 0
-1 -12 -30 -61 0
-1 -12 -40 -47 0
-1 -12 -40 -52 0
-1 -12 -40 -61 0
-1 -12 -47 -52 0
-1 -12 -47 -61 0
-1 -12 -52 -61 0
-1 -20 -22 -30 0
-1 -20 -22 -40 0
-1 -20 -22 -47 0
-1 -20 -22 -52 0
-1 -20 -22 -61 0
-1 -20 -30 -40 0
-1 -20 -30 -47 0
-1 -20 -30 -52 0
-1 -20 -30 -61 0
-1 -20 -40 -47 0
-1 -20 -40 -52 0
-1 -20 -40 -61 0
-1 -20 -47 -52 0
-1 -20 -47 -61 0
-1 -20 -52 -61 0
-1 -22 -30 -40 0
-1 -22 -30 -47 0
-1 -22 -30 -52 0
-1 -22 -30 -61 0
-1 -22 -40 -47 0
-1 -22 -40 -52 0
-1 -22 -40 -61 0
-1 -22 -47 -52 0
-1 -22 -47 -61 0
-1 -22 -52 -61 0
-1 -30 -40 -47 0
-1 -30 -40 -52 0
-1 -30 -40 -61 0
-1 -30 -47 -52 0
-1 -30 -47 -61 0
-1 -30 -52 -61 0
-1 -40 -47 -52 0
-1 -40 -47 -61 0
-1 -40 -52 -61 0
-1 -47 -52 -61 0
-12 -20 -22 -30 0
-12 -20 -22 -40 0
-12 -20 -22 -47 0
-12 -20 -22 -52 0
-12 -20 -22 -61 0
-12 -20 -30 -40 0
-12 -20 -30 -47 0
-12 -20 -30 -52 0
-12 -20 -30 -61 0
-12 -20 -40 -47 0
-12 -20 -40 -52 0
-12 -20 -40 -61 0
-12 -20 -47 -52 0
-12 -20 -47 -61 0
-12 -20 -52 -61 0
-12 -22 -30 -40 0
-12 -22 -30 -47 0
-12 -22 -30 -52 0
-12 -22 -30 -61 0
-12 -22 -40 -47 0
-12 -22 -40 -52 0
-12 -22 -40 -61 0
-12 -22 -47 -52 0
-12 -22 -47 -61 0
-12 -22 -52 -61 0
-12 -30 -40 -47 0
-12 -30 -40 -52 0
-12 -30 -40 -61 0
-12 -30 -47 -52 0
-12 -30 -47 -61 0
-12 -30 -52 -61 0
-12 -40 -47 -52 0
-12 -40 -47 -61 0
-12 -40 -52 -61 0
-12 -47 -52 -61 0
-20 -22 -30 -40 0
-20 -22 -30 -47 0
-20 -22 -30 -52 0
-20 -22 -30 -61 0
-20 -22 -40 -47 0
-20 -22 -40 -52 0
-20 -22 -40 -61 0
-20 -22 -47 -52 0
-20 -22 -47 -61 0
-20 -22 -52 -61 0
-20 -30 -40 -47 0
-20 -30 -40 -52 0
-20 -30 -40 -61 0
-20 -30 -47 -52 0
-20 -30 -47 -61 0
-20 -30 -52 -61 0
-20 -40 -47 -52 0
-20 -40 -47 -61 0
-20 -40 -52 -61 0
-20 -47 -52 -61 0
-22 -30 -40 -47 0
-22 -30 -40 -52 0
-22 -30 -40 -61 0
-22 -30 -47 -52 0
-22 -30 -47 -61 0
-22 -30 -52 -61 0
-22 -40 -47 -52 0
-22 -40 -47 -61 0
-22 -40 -52 -61 0
-22 -47 -52 -61 0
-30 -40 -47 -52 0
-30 -40 -47 -61 0
-30 -40 -52 -61 0
-30 -47 -52 -61 0
-40 -47 -52 -61 0
-7 -8 -16 -25 0
-7 -8 -16 -32 0
-7 -8 -16 -36 0
-7 -8 -16 -49 0
-7 -8 -16 -55 0
-7 -8 -16 -62 0
-7 -8 -25 -32 0
-7 -8 -25 -36 0
-7 -8 -25 -49 0
-7 -8 -25 -55 0
-7 -8 -25 -62 0
-7 -8 -32 -36 0
-7 -8 -32 -49 0
-7 -8 -32 -55 0
-7 -8 -32 -62 0
-7 -8 -36 -49 0
-7 -8 -36 -55 0
-7 -8 -36 -62 0
-7 -8 -49 -55 0
-7 -8 -49 -62 0
-7 -8 -55 -62 0
-7 -16 -25 -32 0
-7 -16 -25 -36 0
-7 -16 -25 -49 0
-7 -16 -25 -55 0
-7 -16 -25 -62 0
-7 -16 -32 -36 0
-7 -16 -32 -49 0
-7 -16 -32 -55 0
-7 -16 -32 -62 0
-7 -16 -36 -49 0
-7 -16 -36 -55 0
-7 -16 -36 -62 0
-7 -16 -49 -55 0
-7 -16 -49 -62 0
-7 -16 -55 -62 0
-7 -25 -32 -36 0
-7 -25 -32 -49 0
-7 -25 -32 -55 0
-7 -25 -32 -62 0
-7 -25 -36 -49 0
-7 -25 -36 -55 0
-7 -25 -36 -62 0
-7 -25 -49 -55 0
-7 -25 -49 -62 0
-7 -25 -55 -62 0
-7 -32 -36 -49 0
-7 -32 -36 -55 0
-7 -32 -36 -62 0
-7 -32 -49 -55 0
-7 -32 -49 -62 0
-7 -32 -55 -62 0
-7 -36 -49 -55 0
-7 -36 -49 -62 0
-7 -36 -55 -62 0
-7 -49 -55 -62 0
-8 -16 -25 -32 0
-8 -16 -25 -36 0
-8 -16 -25 -49 0
-8 -16 -25 -55 0
-8 -16 -25 -62 0
-8 -16 -32 -36 0
-8 -16 -32 -49 0
-8 -16 -32 -55 0
-8 -16 -32 -62 0
-8 -16 -36 -49 0
-8 -16 -36 -55 0
-8 -16 -36 -62 0
-8 -16 -49 -55 0
-8 -16 -49 -62 0
-8 -16 -55 -62 0
-8 -25 -32 -36 0
-8 -25 -32 -49 0
-8 -25 -32 -55 0
-8 -25 -32 -62 0
-8 -25 -36 -49 0
-8 -25 -36 -55 0
-8 -25 -36 -62 0
-8 -25 -49 -55 0
-8 -25 -49 -62 0
-8 -25 -55 -62 0
-8 -32 -36 -49 0
-8 -32 -36 -55 0
-8 -32 -36 -62 0
-8 -32 -49 -55 0
-8 -32 -49 -62 0
-8 -32 -55 -62 0
-8 -36 -49 -55 0
-8 -36 -49 -62 0
-8 -36 -55 -62 0
-8 -49 -55 -62 0
-16 -25 -32 -36 0
-16 -25 -32 -49 0
-16 -25 -32 -55 0
-16 -25 -32 -62 0
-16 -25 -36 -49 0
-16 -25 -36 -55 0
-16 -25 -36 -62 0
-16 -25 -49 -55 0
-16 -25 -49 -62 0
-16 -25 -55 -62 0
-16 -32 -36 -49 0
-16 -32 -36 -55 0
-16 -32 -36 -62 0
-16 -32 -49 -55 0
-16 -32 -49 -62 0
-16 -32 -55 -62 0
-16 -36 -49 -55 0
-16 -36 -49 -62 0
-16 -36 -55 -62 0
-16 -49 -55 -62 0
-25 -32 -36 -49 0
-25 -32 -36 -55 0
-25 -32 -36 -62 0
-25 -32 -49 -55 0
-25 -32 -49 -62 0
-25 -32 -55 -62 0
-25 -36 -49 -55 0
-25 -36 -49 -62 0
-25 -36 -55 -62 0
-25 -49 -55 -62 0
-32 -36 -49 -55 0
-32 -36 -49 -62 0
-32 -36 -55 -62 0
-32 -49 -55 -62 0
-36 -49 -55 -62 0
-5 -11 -16 -26 0
-5 -11 -16 -33 0
-5 -11 -16 -38 0
-5 -11 -16 -46 0
-5 -11 -16 -54 0
-5 -11 -16 -61 0
-5 -11 -26 -33 0
-5 -11 -26 -38 0
-5 -11 -26 -46 0
-5 -11 -26 -54 0
-5 -11 -26 -61 0
-5 -11 -33 -38 0
-5 -11 -33 -46 0
-5 -11 -33 -54 0
-5 -11 -33 -61 0
-5 -11 -38 -46 0
-5 -11 -38 -54 0
-5 -11 -38 -61 0
-5 -11 -46 -54 0
-5 -11 -46 -61 0
-5 -11 -54 -61 0
-5 -16 -26 -33 0
-5 -16 -26 -38 0
-5 -16 -26 -46 0
-5 -16 -26 -54 0
-5 -16 -26 -61 0
-5 -16 -33 -38 0
-5 -16 -33 -46 0
-5 -16 -33 -54 0
-5 -16 -33 -61 0
-5 -16 -38 -46 0
-5 -16 -38 -54 0
-5 -16 -38 -61 0
-5 -16 -46 -54 0
-5 -16 -46 -61 0
-5 -16 -54 -61 0
-5 -26 -33 -38 0
-5 -26 -33 -46 0
-5 -26 -33 -54 0
-5 -26 -33 -61 0
-5 -26 -38 -46 0
-5 -26 -38 -54 0
-5 -26 -38 -61 0
-5 -26 -46 -54 0
-5 -26 -46 -61 0
-5 -26 -54 -61 0
-5 -33 -38 -46 0
-5 -33 -38 -54 0
-5 -33 -38 -61 0
-5 -33 -46 -54 0
-5 -33 -46 -61 0
-5 -33 -54 -61 0
-5 -38 -46 -54 0
-5 -38 -46 -61 0
-5 -38 -54 -61 0
-5 -46 -54 -61 0
-11 -16 -26 -33 0
-11 -16 -26 -38 0
-11 -16 -26 -46 0
-11 -16 -26 -54 0
-11 -16 -26 -61 0
-11 -16 -33 -38 0
-11 -16 -33 -46 0
-11 -16 -33 -54 0
-11 -16 -33 -61 0
-11 -16 -38 -46 0
-11 -16 -38 -54 0
-11 -16 -38 -61 0
-11 -16 -46 -54 0
-11 -16 -46 -61 0
-11 -16 -54 -61 0
-11 -26 -33 -38 0
-11 -26 -33 -46 0
-11 -26 -33 -54 0
-11 -26 -33 -61 0
-11 -26 -38 -46 0
-11 -26 -38 -54 0
-11 -26 -38 -61 0
-11 -26 -46 -54 0
-11 -26 -46 -61 0
-11 -26 -54 -61 0
-11 -33 -38 -46 0
-11 -33 -38 -54 0
-11 -33 -38 -61 0
-11 -33 -46 -54 0
-11 -33 -46 -61 0
-11 -33 -54 -61 0
-11 -38 -46 -54 0
-11 -38 -46 -61 0
-11 -38 -54 -61 0
-11 -46 -54 -61 0
-16 -26 -33 -38 0
-16 -26 -33 -46 0
-16 -26 -33 -54 0
-16 -26 -33 -61 0
-16 -26 -38 -46 0
-16 -26 -38 -54 0
-16 -26 -38 -61 0
-16 -26 -46 -54 0
-16 -26 -46 -61 0
-16 -26 -54 -61 0
-16 -33 -38 -46 0
-16 -33 -38 -54 0
-16 -33 -38 -61 0
-16 -33 -46 -54 0
-16 -33 -46 -61 0
-16 -33 -54 -61 0
-16 -38 -46 -54 0
-16 -38 -46 -61 0
-16 -38 -54 -61 0
-16 -46 -54 -61 0
-26 -33 -38 -46 0
-26 -33 -38 -54 0
-26 -33 -38 -61 0
-26 -33 -46 -54 0
-26 -33 -46 -61 0
-26 -33 -54 -61 0
-26 -38 -46 -54 0
-26 -38 -46 -61 0
-26 -38 -54 -61 0
-26 -46 -54 -61 0
-33 -38 -46 -54 0
-33 -38 -46 -61 0
-33 -38 -54 -61 0
-33 -46 -54 -61 0
-38 -46 -54 -61 0
-2 -14 -18 -26 0
-2 -14 -18 -34 0
-2 -14 -18 -36 0
-2 -14 -18 -44 0
-2 -14 -18 -56 0
-2 -14 -18 -59 0
-2 -14 -26 -34 0
-2 -14 -26 -36 0
-2 -14 -26 -44 0
-2 -14 -26 -56 0
-2 -14 -26 -59 0
-2 -14 -34 -36 0
-2 -14 -34 -44 0
-2 -14 -34 -56 0
-2 -14 -34 -59 0
-2 -14 -36 -44 0
-2 -14 -36 -56 0
-2 -14 -36 -59 0
-2 -14 -44 -56 0
-2 -14 -44 -59 0
-2 -14 -56 -59 0
-2 -18 -26 -34 0
-2 -18 -26 -36 0
-2 -18 -26 -44 0
-2 -18 -26 -56 0
-2 -18 -26 -59 0
-2 -18 -34 -36 0
-2 -18 -34 -44 0
-2 -18 -34 -56 0
-2 -18 -34 -59 0
-2 -18 -36 -44 0
-2 -18 -36 -56 0
-2 -18 -36 -59 0
-2 -18 -44 -56 0
-2 -18 -44 -59 0
-2 -18 -56 -59 0
-2 -26 -34 -36 0
-2 -26 -34 -44 0
-2 -26 -34 -56 0
-2 -26 -34 -59 0
-2 -26 -36 -44 0
-2 -26 -36 -56 0
-2 -26 -36 -59 0
-2 -26 -44 -56 0
-2 -26 -44 -59 0
-2 -26 -56 -59 0
-2 -34 -36 -44 0
-2 -34 -36 -56 0
-2 -34 -36 -59 0
-2 -34 -44 -56 0
-2 -34 -44 -59 0
-2 -34 -56 -59 0
-2 -36 -44 -56 0
-2 -36 -44 -59 0
-2 -36 -56 -59 0
-2 -44 -56 -59 0
-14 -18 -26 -34 0
-14 -18 -26 -36 0
-14 -18 -26 -44 0
-14 -18 -26 -56 0
-14 -18 -26 -59 0
-14 -18 -34 -36 0
-14 -18 -34 -44 0
-14 -18 -34 -56 0
-14 -18 -34 -59 0
-14 -18 -36 -44 0
-14 -18 -36 -56 0
-14 -18 -36 -59 0
-14 -18 -44 -56 0
-14 -18 -44 -59 0
-14 -18 -56 -59 0
-14 -26 -34 -36 0
-14 -26 -34 -44 0
-14 -26 -34 -56 0
-14 -26 -34 -59 0
-14 -26 -36 -44 0
-14 -26 -36 -56 0
-14 -26 -36 -59 0
-14 -26 -44 -56 0
-14 -26 -44 -59 0
-14 -26 -56 -59 0
-14 -34 -36 -44 0
-14 -34 -36 -56 0
-14 -34 -36 -59 0
-14 -34 -44 -56 0
-14 -34 -44 -59 0
-14 -34 -56 -59 0
-14 -36 -44 -56 0
-14 -36 -44 -59 0
-14 -36 -56 -59 0
-14 -44 -56 -59 0
-18 -26 -34 -36 0
-18 -26 -34 -44 0
-18 -26 -34 -56 0
-18 -26 -34 -59 0
-18 -26 -36 -44 0
-18 -26 -36 -56 0
-18 -26 -36 -59 0
-18 -26 -44 -56 0
-18 -26 -44 -59 0
-18 -26 -56 -59 0
-18 -34 -36 -44 0
-18 -34 -36 -56 0
-18 -34 -36 -59 0
-18 -34 -44 -56 0
-18 -34 -44 -59 0
-18 -34 -56 -59 0
-18 -36 -44 -56 0
-18 -36 -44 -59 0
-18 -36 -56 -59 0
-18 -44 -56 -59 0
-26 -34 -36 -44 0
-26 -34 -36 -56 0
-26 -34 -36 -59 0
-26 -34 -44 -56 0
-26 -34 -44 -59 0
-26 -34 -56 -59 0
-26 -36 -44 -56 0
-26 -36 -44 -59 0
-26 -36 -56 -59 0
-26 -44 -56 -59 0
-34 -36 -44 -56 0
-34 -36 -44 -59 0
-34 -36 -56 -59 0
-34 -44 -56 -59 0
-36 -44 -56 -59 0
-6 -14 -19 -26 0
-6 -14 -19 -35 0
-6 -14 -19 -38 0
-6 -14 -19 -47 0
-6 -14 -19 -50 0
-6 -14 -19 -58 0
-6 -14 -26 -35 0
-6 -14 -26 -38 0
-6 -14 -26 -47 0
-6 -14 -26 -50 0
-6 -14 -26 -58 0
-6 -14 -35 -38 0
-6 -14 -35 -47 0
-6 -14 -35 -50 0
-6 -14 -35 -58 0
-6 -14 -38 -47 0
-6 -14 -38 -50 0
-6 -14 -38 -58 0
-6 -14 -47 -50 0
-6 -14 -47 -58 0
-6 -14 -50 -58 0
-6 -19 -26 -35 0
-6 -19 -26 -38 0
-6 -19 -26 -47 0
-6 -19 -26 -50 0
-6 -19 -26 -58 0
-6 -19 -35 -38 0
-6 -19 -35 -47 0
-6 -19 -35 -50 0
-6 -19 -35 -58 0
-6 -19 -38 -47 0
-6 -19 -38 -50 0
-6 -19 -38 -58 0
-6 -19 -47 -50 0
-6 -19 -47 -58 0
-6 -19 -50 -58 0
-6 -26 -35 -38 0
-6 -26 -35 -47 0
-6 -26 -35 -50 0
-6 -26 -35 -58 0
-6 -26 -38 -47 0
-6 -26 -38 -50 0
-6 -26 -38 -58 0
-6 -26 -47 -50 0
-6 -26 -47 -58 0
-6 -26 -50 -58 0
-6 -35 -38 -47 0
-6 -35 -38 -50 0
-6 -35 -38 -58 0
-6 -35 -47 -50 0
-6 -35 -47 -58 0
-6 -35 -50 -58 0
-6 -38 -47 -50 0
-6 -38 -47 -58 0
-6 -38 -50 -58 0
-6 -47 -50 -58 0
-14 -19 -26 -35 0
-14 -19 -26 -38 0
-14 -19 -26 -47 0
-14 -19 -26 -50 0
-14 -19 -26 -58 0
-14 -19 -35 -38 0
-14 -19 -35 -47 0
-14 -19 -35 -50 0
-14 -19 -35 -58 0
-14 -19 -38 -47 0
-14 -19 -38 -50 0
-14 -19 -38 -58 0
-14 -19 -47 -50 0
-14 -19 -47 -58 0
-14 -19 -50 -58 0
-14 -26 -35 -38 0
-14 -26 -35 -47 0
-14 -26 -35 -50 0
-14 -26 -35 -58 0
-14 -26 -38 -47 0
-14 -26 -38 -50 0
-14 -26 -38 -58 0
-14 -26 -47 -50 0
-14 -26 -47 -58 0
-14 -26 -50 -58 0
-14 -35 -38 -47 0
-14 -35 -38 -50 0
-14 -35 -38 -58 0
-14 -35 -47 -50 0
-14 -35 -47 -58 0
-14 -35 -50 -58 0
-14 -38 -47 -50 0
-14 -38 -47 -58 0
-14 -38 -50 -58 0
-14 -47 -50 -58 0
-19 -26 -35 -38 0
-19 -26 -35 -47 0
-19 -26 -35 -50 0
-19 -26 -35 -58 0
-19 -26 -38 -47 0
-19 -26 -38 -50 0
-19 -26 -38 -58 0
-19 -26 -47 -50 0
-19 -26 -47 -58 0
-19 -26 -50 -58 0
-19 -35 -38 -47 0
-19 -35 -38 -50 0
-19 -35 -38 -58 0
-19 -35 -47 -50 0
-19 -35 -47 -58 0
-19 -35 -50 -58 0
-19 -38 -47 -50 0
-19 -38 -47 -58 0
-19 -38 -50 -58 0
-19 -47 -50 -58 0
-26 -35 -38 -47 0
-26 -35 -38 -50 0
-26 -35 -38 -58 0
-26 -35 -47 -50 0
-26 -35 -47 -58 0
-26 -35 -50 -58 0
-26 -38 -47 -50 0
-26 -38 -47 -58 0
-26 -38 -50 -58 0
-26 -47 -50 -58 0
-35 -38 -47 -50 0
-35 -38 -47 -58 0
-35 -38 -50 -58 0
-35 -47 -50 -58 0
-38 -47 -50 -58 0
-7 -13 -19 -26 0
-7 -13 -19 -29 0
-7 -13 -19 -39 0
-7 -13 -19 -45 0
-7 -13 -19 -55 0
-7 -13 -19 -61 0
-7 -13 -26 -29 0
-7 -13 -26 -39 0
-7 -13 -26 -45 0
-7 -13 -26 -55 0
-7 -13 -26 -61 0
-7 -13 -29 -39 0
-7 -13 -29 -45 0
-7 -13 -29 -55 0
-7 -13 -29 -61 0
-7 -13 -39 -45 0
-7 -13 -39 -55 0
-7 -13 -39 -61 0
-7 -13 -45 -55 0
-7 -13 -45 -61 0
-7 -13 -55 -61 0
-7 -19 -26 -29 0
-7 -19 -26 -39 0
-7 -19 -26 -45 0
-7 -19 -26 -55 0
-7 -19 -26 -61 0
-7 -19 -29 -39 0
-7 -19 -29 -45 0
-7 -19 -29 -55 0
-7 -19 -29 -61 0
-7 -19 -39 -45 0
-7 -19 -39 -55 0
-7 -19 -39 -61 0
-7 -19 -45 -55 0
-7 -19 -45 -61 0
-7 -19 -55 -61 0
-7 -26 -29 -39 0
-7 -26 -29 -45 0
-7 -26 -29 -55 0
-7 -26 -29 -61 0
-7 -26 -39 -45 0
-7 -26 -39 -55 0
-7 -26 -39 -61 0
-7 -26 -45 -55 0
-7 -26 -45 -61 0
-7 -26 -55 -61 0
-7 -29 -39 -45 0
-7 -29 -39 -55 0
-7 -29 -39 -61 0
-7 -29 -45 -55 0
-7 -29 -45 -61 0
-7 -29 -55 -61 0
-7 -39 -45 -55 0
-7 -39 -45 -61 0
-7 -39 -55 -61 0
-7 -45 -55 -61 0
-13 -19 -26 -29 0
-13 -19 -26 -39 0
-13 -19 -26 -45 0
-13 -19 -26 -55 0
-13 -19 -26 -61 0
-13 -19 -29 -39 0
-13 -19 -29 -45 0
-13 -19 -29 -55 0
-13 -19 -29 -61 0
-13 -19 -39 -45 0
-13 -19 -39 -55 0
-13 -19 -39 -61 0
-13 -19 -45 -55 0
-13 -19 -45 -61 0
-13 -19 -55 -61 0
-13 -26 -29 -39 0
-13 -26 -29 -45 0
-13 -26 -29 -55 0
-13 -26 -29 -61 0
-13 -26 -39 -45 0
-13 -26 -39 -55 0
-13 -26 -39 -61 0
-13 -26 -45 -55 0
-13 -26 -45 -61 0
-13 -26 -55 -61 0
-13 -29 -39 -45 0
-13 -29 -39 -55 0
-13 -29 -39 -61 0
-13 -29 -45 -55 0
-13 -29 -45 -61 0
-13 -29 -55 -61 0
-13 -39 -45 -55 0
-13 -39 -45 -61 0
-13 -39 -55 -61 0
-13 -45 -55 -61 0
-19 -26 -29 -39 0
-19 -26 -29 -45 0
-19 -26 -29 -55 0
-19 -26 -29 -61 0
-19 -26 -39 -45 0
-19 -26 -39 -55 0
-19 -26 -39 -61 0
-19 -26 -45 -55 0
-19 -26 -45 -61 0
-19 -26 -55 -61 0
-19 -29 -39 -45 0
-19 -29 -39 -55 0
-19 -29 -39 -61 0
-19 -29 -45 -55 0
-19 -29 -45 -61 0
-19 -29 -55 -61 0
-19 -39 -45 -55 0
-19 -39 -45 -61 0
-19 -39 -55 -61 0
-19 -45 -55 -61 0
-26 -29 -39 -45 0
-26 -29 -39 -55 0
-26 -29 -39 -61 0
-26 -29 -45 -55 0
-26 -29 -45 -61 0
-26 -29 -55 -61 0
-26 -39 -45 -55 0
-26 -39 -45 -61 0
-26 -39 -55 -61 0
-26 -45 -55 -61 0
-29 -39 -45 -55 0
-29 -39 -45 -61 0
-29 -39 -55 -61 0
-29 -45 -55 -61 0
-39 -45 -55 -61 0
-4 -13 -16 -28 0
-4 -13 -16 -34 0
-4 -13 -16 -39 0
-4 -13 -16 -47 0
-4 -13 -16 -52 0
-4 -13 -16 -57 0
-4 -13 -28 -34 0
-4 -13 -28 -39 0
-4 -13 -28 -47 0
-4 -13 -28 -52 0
-4 -13 -28 -57 0
-4 -13 -34 -39 0
-4 -13 -34 -47 0
-4 -13 -34 -52 0
-4 -13 -34 -57 0
-4 -13 -39 -47 0
-4 -13 -39 -52 0
-4 -13 -39 -57 0
-4 -13 -47 -52 0
-4 -13 -47 -57 0
-4 -13 -52 -57 0
-4 -16 -28 -34 0
-4 -16 -28 -39 0
-4 -16 -28 -47 0
-4 -16 -28 -52 0
-4 -16 -28 -57 0
-4 -16 -34 -39 0
-4 -16 -34 -47 0
-4 -16 -34 -52 0
-4 -16 -34 -57 0
-4 -16 -39 -47 0
-4 -16 -39 -52 0
-4 -16 -39 -57 0
-4 -16 -47 -52 0
-4 -16 -47 -57 0
-4 -16 -52 -57 0
-4 -28 -34 -39 0
-4 -28 -34 -47 0
-4 -28 -34 -52 0
-4 -28 -34 -57 0
-4 -28 -39 -47 0
-4 -28 -39 -52 0
-4 -28 -39 -57 0
-4 -28 -47 -52 0
-4 -28 -47 -57 0
-4 -28 -52 -57 0
-4 -34 -39 -47 0
-4 -34 -39 -52 0
-4 -34 -39 -57 0
-4 -34 -47 -52 0
-4 -34 -47 -57 0
-4 -34 -52 -57 0
-4 -39 -47 -52 0
-4 -39 -47 -57 0
-4 -39 -52 -57 0
-4 -47 -52 -57 0
-13 -16 -28 -34 0
-13 -16 -28 -39 0
-13 -16 -28 -47 0
-13 -16 -28 -52 0
-13 -16 -28 -57 0
-13 -16 -34 -39 0
-13 -16 -34 -47 0
-13 -16 -34 -52 0
-13 -16 -34 -57 0
-13 -16 -39 -47 0
-13 -16 -39 -52 0
-13 -16 -39 -57 0
-13 -16 -47 -52 0
-13 -16 -47 -57 0
-13 -16 -52 -57 0
-13 -28 -34 -39 0
-13 -28 -34 -47 0
-13 -28 -34 -52 0
-13 -28 -34 -57 0
-13 -28 -39 -47 0
-13 -28 -39 -52 0
-13 -28 -39 -57 0
-13 -28 -47 -52 0
-13 -28 -47 -57 0
-13 -28 -52 -57 0
-13 -34 -39 -47 0
-13 -34 -39 -52 0
-13 -34 -39 -57 0
-13 -34 -47 -52 0
-13 -34 -47 -57 0
-13 -34 -52 -57 0
-13 -39 -47 -52 0
-13 -39 -47 -57 0
-13 -39 -52 -57 0
-13 -47 -52 -57 0
-16 -28 -34 -39 0
-16 -28 -34 -47 0
-16 -28 -34 -52 0
-16 -28 -34 -57 0
-16 -28 -39 -47 0
-16 -28 -39 -52 0
-16 -28 -39 -57 0
-16 -28 -47 -52 0
-16 -28 -47 -57 0
-16 -28 -52 -57 0
-16 -34 -39 -47 0
-16 -34 -39 -52 0
-16 -34 -39 -57 0
-16 -34 -47 -52 0
-16 -34 -47 -57 0
-16 -34 -52 -57 0
-16 -39 -47 -52 0
-16 -39 -47 -57 0
-16 -39 -52 -57 0
-16 -47 -52 -57 0
-28 -34 -39 -47 0
-28 -34 -39 -52 0
-28 -34 -39 -57 0
-28 -34 -47 -52 0
-28 -34 -47 -57 0
-28 -34 -52 -57 0
-28 -39 -47 -52 0
-28 -39 -47 -57 0
-28 -39 -52 -57 0
-28 -47 -52 -57 0
-34 -39 -47 -52 0
-34 -39 -47 -57 0
-34 -39 -52 -57 0
-34 -47 -52 -57 0
-39 -47 -52 -57 0
-5 -9 -17 -24 0
-5 -9 -17 -32 0
-5 -9 -17 -37 0
-5 -9 -17 -45 0
-5 -9 -17 -54 0
-5 -9 -17 -58 0
-5 -9 -24 -32 0
-5 -9 -24 -37 0
-5 -9 -24 -45 0
-5 -9 -24 -54 0
-5 -9 -24 -58 0
-5 -9 -32 -37 0
-5 -9 -32 -45 0
-5 -9 -32 -54 0
-5 -9 -32 -58 0
-5 -9 -37 -45 0
-5 -9 -37 -54 0
-5 -9 -37 -58 0
-5 -9 -45 -54 0
-5 -9 -45 -58 0
-5 -9 -54 -58 0
-5 -17 -24 -32 0
-5 -17 -24 -37 0
-5 -17 -24 -45 0
-5 -17 -24 -54 0
-5 -17 -24 -58 0
-5 -17 -32 -37 0
-5 -17 -32 -45 0
-5 -17 -32 -54 0
-5 -17 -32 -58 0
-5 -17 -37 -45 0
-5 -17 -37 -54 0
-5 -17 -37 -58 0
-5 -17 -45 -54 0
-5 -17 -45 -58 0
-5 -17 -54 -58 0
-5 -24 -32 -37 0
-5 -24 -32 -45 0
-5 -24 -32 -54 0
-5 -24 -32 -58 0
-5 -24 -37 -45 0
-5 -24 -37 -54 0
-5 -24 -37 -58 0
-5 -24 -45 -54 0
-5 -24 -45 -58 0
-5 -24 -54 -58 0
-5 -32 -37 -45 0
-5 -32 -37 -54 0
-5 -32 -37 -58 0
-5 -32 -45 -54 0
-5 -32 -45 -58 0
-5 -32 -54 -58 0
-5 -37 -45 -54 0
-5 -37 -45 -58 0
-5 -37 -54 -58 0
-5 -45 -54 -58 0
-9 -17 -24 -32 0
-9 -17 -24 -37 0
-9 -17 -24 -45 0
-9 -17 -24 -54 0
-9 -17 -24 -58 0
-9 -17 -32 -37 0
-9 -17 -32 -45 0
-9 -17 -32 -54 0
-9 -17 -32 -58 0
-9 -17 -37 -45 0
-9 -17 -37 -54 0
-9 -17 -37 -58 0
-9 -17 -45 -54 0
-9 -17 -45 -58 0
-9 -17 -54 -58 0
-9 -24 -32 -37 0
-9 -24 -32 -45 0
-9 -24 -32 -54 0
-9 -24 -32 -58 0
-9 -24 -37 -45 0
-9 -24 -37 -54 0
-9 -24 -37 -58 0
-9 -24 -45 -54 0
-9 -24 -45 -58 0
-9 -24 -54 -58 0
-9 -32 -37 -45 0
-9 -32 -37 -54 0
-9 -32 -37 -58 0
-9 -32 -45 -54 0
-9 -32 -45 -58 0
-9 -32 -54 -58 0
-9 -37 -45 -54 0
-9 -37 -45 -58 0
-9 -37 -54 -58 0
-9 -45 -54 -58 0
-17 -24 -32 -37 0
-17 -24 -32 -45 0
-17 -24 -32 -54 0
-17 -24 -32 -58 0
-17 -24 -37 -45 0
-17 -24 -37 -54 0
-17 -24 -37 -58 0
-17 -24 -45 -54 0
-17 -24 -45 -58 0
-17 -24 -54 -58 0
-17 -32 -37 -45 0
-17 -32 -37 -54 0
-17 -32 -37 -58 0
-17 -32 -45 -54 0
-17 -32 -45 -58 0
-17 -32 -54 -58 0
-17 -37 -45 -54 0
-17 -37 -45 -58 0
-17 -37 -54 -58 0
-17 -45 -54 -58 0
-24 -32 -37 -45 0
-24 -32 -37 -54 0
-24 -32 -37 -58 0
-24 -32 -45 -54 0
-24 -32 -45 -58 0
-24 -32 -54 -58 0
-24 -37 -45 -54 0
-24 -37 -45 -58 0
-24 -37 -54 -58 0
-24 -45 -54 -58 0
-32 -37 -45 -54 0
-32 -37 -45 -58 0
-32 -37 -54 -58 0
-32 -45 -54 -58 0
-37 -45 -54 -58 0
-3 -10 -15 -24 0
-3 -10 -15 -34 0
-3 -10 -15 -40 0
-3 -10 -15 -43 0
-3 -10 -15 -55 0
-3 -10 -15 -61 0
-3 -10 -24 -34 0
-3 -10 -24 -40 0
-3 -10 -24 -43 0
-3 -10 -24 -55 0
-3 -10 -24 -61 0
-3 -10 -34 -40 0
-3 -10 -34 -43 0
-3 -10 -34 -55 0
-3 -10 -34 -61 0
-3 -10 -40 -43 0
-3 -10 -40 -55 0
-3 -10 -40 -61 0
-3 -10 -43 -55 0
-3 -10 -43 -61 0
-3 -10 -55 -61 0
-3 -15 -24 -34 0
-3 -15 -24 -40 0
-3 -15 -24 -43 0
-3 -15 -24 -55 0
-3 -15 -24 -61 0
-3 -15 -34 -40 0
-3 -15 -34 -43 0
-3 -15 -34 -55 0
-3 -15 -34 -61 0
-3 -15 -40 -43 0
-3 -15 -40 -55 0
-3 -15 -40 -61 0
-3 -15 -43 -55 0
-3 -15 -43 -61 0
-3 -15 -55 -61 0
-3 -24 -34 -40 0
-3 -24 -34 -43 0
-3 -24 -34 -55 0
-3 -24 -34 -61 0
-3 -24 -40 -43 0
-3 -24 -40 -55 0
-3 -24 -40 -61 0
-3 -24 -43 -55 0
-3 -24 -43 -61 0
-3 -24 -55 -61 0
-3 -34 -40 -43 0
-3 -34 -40 -55 0
-3 -34 -40 -61 0
-3 -34 -43 -55 0
-3 -34 -43 -61 0
-3 -34 -55 -61 0
-3 -40 -43 -55 0
-3 -40 -43 -61 0
-3 -40 -55 -61 0
-3 -43 -55 -61 0
-10 -15 -24 -34 0
-10 -15 -24 -40 0
-10 -15 -24 -43 0
-10 -15 -24 -55 0
-10 -15 -24 -61 0
-10 -15 -34 -40 0
-10 -15 -34 -43 0
-10 -15 -34 -55 0
-10 -15 -34 -61 0
-10 -15 -40 -43 0
-10 -15 -40 -55 0
-10 -15 -40 -61 0
-10 -15 -43 -55 0
-10 -15 -43 -61 0
-10 -15 -55 -61 0
-10 -24 -34 -40 0
-10 -24 -34 -43 0
-10 -24 -34 -55 0
-10 -24 -34 -61 0
-10 -24 -40 -43 0
-10 -24 -40 -55 0
-10 -24 -40 -61 0
-10 -24 -43 -55 0
-10 -24 -43 -61 0
-10 -24 -55 -61 0
-10 -34 -40 -43 0
-10 -34 -40 -55 0
-10 -34 -40 -61 0
-10 -34 -43 -55 0
-10 -34 -43 -61 0
-10 -34 -55 -61 0
-10 -40 -43 -55 0
-10 -40 -43 -61 0
-10 -40 -55 -61 0
-10 -43 -55 -61 0
-15 -24 -34 -40 0
-15 -24 -34 -43 0
-15 -24 -34 -55 0
-15 -24 -34 -61 0
-15 -24 -40 -43 0
-15 -24 -40 -55 0
-15 -24 -40 -61 0
-15 -24 -43 -55 0
-15 -24 -43 -61 0
-15 -24 -55 -61 0
-15 -34 -40 -43 0
-15 -34 -40 -55 0
-15 -34 -40 -61 0
-15 -34 -43 -55 0
-15 -34 -43 -61 0
-15 -34 -55 -61 0
-15 -40 -43 -55 0
-15 -40 -43 -61 0
-15 -40 -55 -61 0
-15 -43 -55 -61 0
-24 -34 -40 -43 0
-24 -34 -40 -55 0
-24 -34 -40 -61 0
-24 -34 -43 -55 0
-24 -34 -43 -61 0
-24 -34 -55 -61 0
-24 -40 -43 -55 0
-24 -40 -43 -61 0
-24 -40 -55 -61 0
-24 -43 -55 -61 0
-34 -40 -43 -55 0
-34 -40 -43 -61 0
-34 -40 -55 -61 0
-34 -43 -55 -61 0
-40 -43 -55 -61 0
-1 -11 -15 -24 0
-1 -11 -15 -32 0
-1 -11 -15 -42 0
-1 -11 -15 -46 0
-1 -11 -15 -55 0
-1 -11 -15 -58 0
-1 -11 -24 -32 0
-1 -11 -24 -42 0
-1 -11 -24 -46 0
-1 -11 -24 -55 0
-1 -11 -24 -58 0
-1 -11 -32 -42 0
-1 -11 -32 -46 0
-1 -11 -32 -55 0
-1 -11 -32 -58 0
-1 -11 -42 -46 0
-1 -11 -42 -55 0
-1 -11 -42 -58 0
-1 -11 -46 -55 0
-1 -11 -46 -58 0
-1 -11 -55 -58 0
-1 -15 -24 -32 0
-1 -15 -24 -42 0
-1 -15 -24 -46 0
-1 -15 -24 -55 0
-1 -15 -24 -58 0
-1 -15 -32 -42 0
-1 -15 -32 -46 0
-1 -15 -32 -55 0
-1 -15 -32 -58 0
-1 -15 -42 -46 0
-1 -15 -42 -55 0
-1 -15 -42 -58 0
-1 -15 -46 -55 0
-1 -15 -46 -58 0
-1 -15 -55 -58 0
-1 -24 -32 -42 0
-1 -24 -32 -46 0
-1 -24 -32 -55 0
-1 -24 -32 -58 0
-1 -24 -42 -46 0
-1 -24 -42 -55 0
-1 -24 -42 -58 0
-1 -24 -46 -55 0
-1 -24 -46 -58 0
-1 -24 -55 -58 0
-1 -32 -42 -46 0
-1 -32 -42 -55 0
-1 -32 -42 -58 0
-1 -32 -46 -55 0
-1 -32 -46 -58 0
-1 -32 -55 -58 0
-1 -42 -46 -55 0
-1 -42 -46 -58 0
-1 -42 -55 -58 0
-1 -46 -55 -58 0
-11 -15 -24 -32 0
-11 -15 -24 -42 0
-11 -15 -24 -46 0
-11 -15 -24 -55 0
-11 -15 -24 -58 0
-11 -15 -32 -42 0
-11 -15 -32 -46 0
-11 -15 -32 -55 0
-11 -15 -32 -58 0
-11 -15 -42 -46 0
-11 -15 -42 -55 0
-11 -15 -42 -58 0
-11 -15 -46 -55 0
-11 -15 -46 -58 0
-11 -15 -55 -58 0
-11 -24 -32 -42 0
-11 -24 -32 -46 0
-11 -24 -32 -55 0
-11 -24 -32 -58 0
-11 -24 -42 -46 0
-11 -24 -42 -55 0
-11 -24 -42 -58 0
-11 -24 -46 -55 0
-11 -24 -46 -58 0
-11 -24 -55 -58 0
-11 -32 -42 -46 0
-11 -32 -42 -55 0
-11 -32 -42 -58 0
-11 -32 -46 -55 0
-11 -32 -46 -58 0
-11 -32 -55 -58 0
-11 -42 -46 -55 0
-11 -42 -46 -58 0
-11 -42 -55 -58 0
-11 -46 -55 -58 0
-15 -24 -32 -42 0
-15 -24 -32 -46 0
-15 -24 -32 -55 0
-15 -24 -32 -58 0
-15 -24 -42 -46 0
-15 -24 -42 -55 0
-15 -24 -42 -58 0
-15 -24 -46 -55 0
-15 -24 -46 -58 0
-15 -24 -55 -58 0
-15 -32 -42 -46 0
-15 -32 -42 -55 0
-15 -32 -42 -58 0
-15 -32 -46 -55 0
-15 -32 -46 -58 0
-15 -32 -55 -58 0
-15 -42 -46 -55 0
-15 -42 -46 -58 0
-15 -42 -55 -58 0
-15 -46 -55 -58 0
-24 -32 -42 -46 0
-24 -32 -42 -55 0
-24 -32 -42 -58 0
-24 -32 -46 -55 0
-24 -32 -46 -58 0
-24 -32 -55 -58 0
-24 -42 -46 -55 0
-24 -42 -46 -58 0
-24 -42 -55 -58 0
-24 -46 -55 -58 0
-32 -42 -46 -55 0
-32 -42 -46 -58 0
-32 -42 -55 -58 0
-32 -46 -55 -58 0
-42 -46 -55 -58 0
-5 -9 -18 -24 0
-5 -9 -18 -30 0
-5 -9 -18 -36 0
-5 -9 -18 -45 0
-5 -9 -18 -51 0
-5 -9 -18 -62 0
-5 -9 -24 -30 0
-5 -9 -24 -36 0
-5 -9 -24 -45 0
-5 -9 -24 -51 0
-5 -9 -24 -62 0
-5 -9 -30 -36 0
-5 -9 -30 -45 0
-5 -9 -30 -51 0
-5 -9 -30 -62 0
-5 -9 -36 -45 0
-5 -9 -36 -51 0
-5 -9 -36 -62 0
-5 -9 -45 -51 0
-5 -9 -45 -62 0
-5 -9 -51 -62 0
-5 -18 -24 -30 0
-5 -18 -24 -36 0
-5 -18 -24 -45 0
-5 -18 -24 -51 0
-5 -18 -24 -62 0
-5 -18 -30 -36 0
-5 -18 -30 -45 0
-5 -18 -30 -51 0
-5 -18 -30 -62 0
-5 -18 -36 -45 0
-5 -18 -36 -51 0
-5 -18 -36 -62 0
-5 -18 -45 -51 0
-5 -18 -45 -62 0
-5 -18 -51 -62 0
-5 -24 -30 -36 0
-5 -24 -30 -45 0
-5 -24 -30 -51 0
-5 -24 -30 -62 0
-5 -24 -36 -45 0
-5 -24 -36 -51 0
-5 -24 -36 -62 0
-5 -24 -45 -51 0
-5 -24 -45 -62 0
-5 -24 -51 -62 0
-5 -30 -36 -45 0
-5 -30 -36 -51 0
-5 -30 -36 -62 0
-5 -30 -45 -51 0
-5 -30 -45 -62 0
-5 -30 -51 -62 0
-5 -36 -45 -51 0
-5 -36 -45 -62 0
-5 -36 -51 -62 0
-5 -45 -51 -62 0
-9 -18 -24 -30 0
-9 -18 -24 -36 0
-9 -18 -24 -45 0
-9 -18 -24 -51 0
-9 -18 -24 -62 0
-9 -18 -30 -36 0
-9 -18 -30 -45 0
-9 -18 -30 -51 0
-9 -18 -30 -62 0
-9 -18 -36 -45 0
-9 -18 -36 -51 0
-9 -18 -36 -62 0
-9 -18 -45 -51 0
-9 -18 -45 -62 0
-9 -18 -51 -62 0
-9 -24 -30 -36 0
-9 -24 -30 -45 0
-9 -24 -30 -51 0
-9 -24 -30 -62 0
-9 -24 -36 -45 0
-9 -24 -36 -51 0
-9 -24 -36 -62 0
-9 -24 -45 -51 0
-9 -24 -45 -62 0
-9 -24 -51 -62 0
-9 -30 -36 -45 0
-9 -30 -36 -51 0
-9 -30 -36 -62 0
-9 -30 -45 -51 0
-9 -30 -45 -62 0
-9 -30 -51 -62 0
-9 -36 -45 -51 0
-9 -36 -45 -62 0
-9 -36 -51 -62 0
-9 -45 -51 -62 0
-18 -24 -30 -36 0
-18 -24 -30 -45 0
-18 -24 -30 -51 0
-18 -24 -30 -62 0
-18 -24 -36 -45 0
-18 -24 -36 -51 0
-18 -24 -36 -62 0
-18 -24 -45 -51 0
-18 -24 -45 -62 0
-18 -24 -51 -62 0
-18 -30 -36 -45 0
-18 -30 -36 -51 0
-18 -30 -36 -62 0
-18 -30 -45 -51 0
-18 -30 -45 -62 0
-18 -30 -51 -62 0
-18 -36 -45 -51 0
-18 -36 -45 -62 0
-18 -36 -51 -62 0
-18 -45 -51 -62 0
-24 -30 -36 -45 0
-24 -30 -36 -51 0
-24 -30 -36 -62 0
-24 -30 -45 -51 0
-24 -30 -45 -62 0
-24 -30 -51 -62 0
-24 -36 -45 -51 0
-24 -36 -45 -62 0
-24 -36 -51 -62 0
-24 -45 -51 -62 0
-30 -36 -45 -51 0
-30 -36 -45 -62 0
-30 -36 -51 -62 0
-30 -45 -51 -62 0
-36 -45 -51 -62 0
-5 -12 -17 -24 0
-5 -12 -17 -35 0
-5 -12 -17 -42 0
-5 -12 -17 -46 0
-5 -12 -17 -54 0
-5 -12 -17 -60 0
-5 -12 -24 -35 0
-5 -12 -24 -42 0
-5 -12 -24 -46 0
-5 -12 -24 -54 0
-5 -12 -24 -60 0
-5 -12 -35 -42 0
-5 -12 -35 -46 0
-5 -12 -35 -54 0
-5 -12 -35 -60 0
-5 -12 -42 -46 0
-5 -12 -42 -54 0
-5 -12 -42 -60 0
-5 -12 -46 -54 0
-5 -12 -46 -60 0
-5 -12 -54 -60 0
-5 -17 -24 -35 0
-5 -17 -24 -42 0
-5 -17 -24 -46 0
-5 -17 -24 -54 0
-5 -17 -24 -60 0
-5 -17 -35 -42 0
-5 -17 -35 -46 0
-5 -17 -35 -54 0
-5 -17 -35 -60 0
-5 -17 -42 -46 0
-5 -17 -42 -54 0
-5 -17 -42 -60 0
-5 -17 -46 -54 0
-5 -17 -46 -60 0
-5 -17 -54 -60 0
-5 -24 -35 -42 0
-5 -24 -35 -46 0
-5 -24 -35 -54 0
-5 -24 -35 -60 0
-5 -24 -42 -46 0
-5 -24 -42 -54 0
-5 -24 -42 -60 0
-5 -24 -46 -54 0
-5 -24 -46 -60 0
-5 -24 -54 -60 0
-5 -35 -42 -46 0
-5 -35 -42 -54 0
-5 -35 -42 -60 0
-5 -35 -46 -54 0
-5 -35 -46 -60 0
-5 -35 -54 -60 0
-5 -42 -46 -54 0
-5 -42 -46 -60 0
-5 -42 -54 -60 0
-5 -46 -54 -60 0
-12 -17 -24 -35 0
-12 -17 -24 -42 0
-12 -17 -24 -46 0
-12 -17 -24 -54 0
-12 -17 -24 -60 0
-12 -17 -35 -42 0
-12 -17 -35 -46 0
-12 -17 -35 -54 0
-12 -17 -35 -60 0
-12 -17 -42 -46 0
-12 -17 -42 -54 0
-12 -17 -42 -60 0
-12 -17 -46 -54 0
-12 -17 -46 -60 0
-12 -17 -54 -60 0
-12 -24 -35 -42 0
-12 -24 -35 -46 0
-12 -24 -35 -54 0
-12 -24 -35 -60 0
-12 -24 -42 -46 0
-12 -24 -42 -54 0
-12 -24 -42 -60 0
-12 -24 -46 -54 0
-12 -24 -46 -60 0
-12 -24 -54 -60 0
-12 -35 -42 -46 0
-12 -35 -42 -54 0
-12 -35 -42 -60 0
-12 -35 -46 -54 0
-12 -35 -46 -60 0
-12 -35 -54 -60 0
-12 -42 -46 -54 0
-12 -42 -46 -60 0
-12 -42 -54 -60 0
-12 -46 -54 -60 0
-17 -24 -35 -42 0
-17 -24 -35 -46 0
-17 -24 -35 -54 0
-17 -24 -35 -60 0
-17 -24 -42 -46 0
-17 -24 -42 -54 0
-17 -24 -42 -60 0
-17 -24 -46 -54 0
-17 -24 -46 -60 0
-17 -24 -54 -60 0
-17 -35 -42 -46 0
-17 -35 -42 -54 0
-17 -35 -42 -60 0
-17 -35 -46 -54 0
-17 -35 -46 -60 0
-17 -35 -54 -60 0
-17 -42 -46 -54 0
-17 -42 -46 -60 0
-17 -42 -54 -60 0
-17 -46 -54 -60 0
-24 -35 -42 -46 0
-24 -35 -42 -54 0
-24 -35 -42 -60 0
-24 -35 -46 -54 0
-24 -35 -46 -60 0
-24 -35 -54 -60 0
-24 -42 -46 -54 0
-24 -42 -46 -60 0
-24 -42 -54 -60 0
-24 -46 -54 -60 0
-35 -42 -46 -54 0
-35 -42 -46 -60 0
-35 -42 -54 -60 0
-35 -46 -54 -60 0
-42 -46 -54 -60 0
-1 -9 -19 -23 0
-1 -9 -19 -32 0
-1 -9 -19 -41 0
-1 -9 -19 -44 0
-1 -9 -19 -53 0
-1 -9 -19 -61 0
-1 -9 -23 -32 0
-1 -9 -23 -41 0
-1 -9 -23 -44 0
-1 -9 -23 -53 0
-1 -9 -23 -61 0
-1 -9 -32 -41 0
-1 -9 -32 -44 0
-1 -9 -32 -53 0
-1 -9 -32 -61 0
-1 -9 -41 -44 0
-1 -9 -41 -53 0
-1 -9 -41 -61 0
-1 -9 -44 -53 0
-1 -9 -44 -61 0
-1 -9 -53 -61 0
-1 -19 -23 -32 0
-1 -19 -23 -41 0
-1 -19 -23 -44 0
-1 -19 -23 -53 0
-1 -19 -23 -61 0
-1 -19 -32 -41 0
-1 -19 -32 -44 0
-1 -19 -32 -53 0
-1 -19 -32 -61 0
-1 -19 -41 -44 0
-1 -19 -41 -53 0
-1 -19 -41 -61 0
-1 -19 -44 -53 0
-1 -19 -44 -61 0
-1 -19 -53 -61 0
-1 -23 -32 -41 0
-1 -23 -32 -44 0
-1 -23 -32 -53 0
-1 -23 -32 -61 0
-1 -23 -41 -44 0
-1 -23 -41 -53 0
-1 -23 -41 -61 0
-1 -23 -44 -53 0
-1 -23 -44 -61 0
-1 -23 -53 -61 0
-1 -32 -41 -44 0
-1 -32 -41 -53 0
-1 -32 -41 -61 0
-1 -32 -44 -53 0
-1 -32 -44 -61 0
-1 -32 -53 -61 0
-1 -41 -44 -53 0
-1 -41 -44 -61 0
-1 -41 -53 -61 0
-1 -44 -53 -61 0
-9 -19 -23 -32 0
-9 -19 -23 -41 0
-9 -19 -23 -44 0
-9 -19 -23 -53 0
-9 -19 -23 -61 0
-9 -19 -32 -41 0
-9 -19 -32 -44 0
-9 -19 -32 -53 0
-9 -19 -32 -61 0
-9 -19 -41 -44 0
-9 -19 -41 -53 0
-9 -19 -41 -61 0
-9 -19 -44 -53 0
-9 -19 -44 -61 0
-9 -19 -53 -61 0
-9 -23 -32 -41 0
-9 -23 -32 -44 0
-9 -23 -32 -53 0
-9 -23 -32 -61 0
-9 -23 -41 -44 0
-9 -23 -41 -53 0
-9 -23 -41 -61 0
-9 -23 -44 -53 0
-9 -23 -44 -61 0
-9 -23 -53 -61 0
-9 -32 -41 -44 0
-9 -32 -41 -53 0
-9 -32 -41 -61 0
-9 -32 -44 -53 0
-9 -32 -44 -61 0
-9 -32 -53 -61 0
-9 -41 -44 -53 0
-9 -41 -44 -61 0
-9 -41 -53 -61 0
-9 -44 -53 -61 0
-19 -23 -32 -41 0
-19 -23 -32 -44 0
-19 -23 -32 -53 0
-19 -23 -32 -61 0
-19 -23 -41 -44 0
-19 -23 -41 -53 0
-19 -23 -41 -61 0
-19 -23 -44 -53 0
-19 -23 -44 -61 0
-19 -23 -53 -61 0
-19 -32 -41 -44 0
-19 -32 -41 -53 0
-19 -32 -41 -61 0
-19 -32 -44 -53 0
-19 -32 -44 -61 0
-19 -32 -53 -61 0
-19 -41 -44 -53 0
-19 -41 -44 -61 0
-19 -41 -53 -61 0
-19 -44 -53 -61 0
-23 -32 -41 -44 0
-23 -32 -41 -53 0
-23 -32 -41 -61 0
-23 -32 -44 -53 0
-23 -32 -44 -61 0
-23 -32 -53 -61 0
-23 -41 -44 -53 0
-23 -41 -44 -61 0
-23 -41 -53 -61 0
-23 -44 -53 -61 0
-32 -41 -44 -53 0
-32 -41 -44 -61 0
-32 -41 -53 -61 0
-32 -44 -53 -61 0
-41 -44 -53 -61 0
-1 -9 -20 -26 0
-1 -9 -20 -33 0
-1 -9 -20 -39 0
-1 -9 -20 -43 0
-1 -9 -20 -55 0
-1 -9 -20 -57 0
-1 -9 -26 -33 0
-1 -9 -26 -39 0
-1 -9 -26 -43 0
-1 -9 -26 -55 0
-1 -9 -26 -57 0
-1 -9 -33 -39 0
-1 -9 -33 -43 0
-1 -9 -33 -55 0
-1 -9 -33 -57 0
-1 -9 -39 -43 0
-1 -9 -39 -55 0
-1 -9 -39 -57 0
-1 -9 -43 -55 0
-1 -9 -43 -57 0
-1 -9 -55 -57 0
-1 -20 -26 -33 0
-1 -20 -26 -39 0
-1 -20 -26 -43 0
-1 -20 -26 -55 0
-1 -20 -26 -57 0
-1 -20 -33 -39 0
-1 -20 -33 -43 0
-1 -20 -33 -55 0
-1 -20 -33 -57 0
-1 -20 -39 -43 0
-1 -20 -39 -55 0
-1 -20 -39 -57 0
-1 -20 -43 -55 0
-1 -20 -43 -57 0
-1 -20 -55 -57 0
-1 -26 -33 -39 0
-1 -26 -33 -43 0
-1 -26 -33 -55 0
-1 -26 -33 -57 0
-1 -26 -39 -43 0
-1 -26 -39 -55 0
-1 -26 -39 -57 0
-1 -26 -43 -55 0
-1 -26 -43 -57 0
-1 -26 -55 -57 0
-1 -33 -39 -43 0
-1 -33 -39 -55 0
-1 -33 -39 -57 0
-1 -33 -43 -55 0
-1 -33 -43 -57 0
-1 -33 -55 -57 0
-1 -39 -43 -55 0
-1 -39 -43 -57 0
-1 -39 -55 -57 0
-1 -43 -55 -57 0
-9 -20 -26 -33 0
-9 -20 -26 -39 0
-9 -20 -26 -43 0
-9 -20 -26 -55 0
-9 -20 -26 -57 0
-9 -20 -33 -39 0
-9 -20 -33 -43 0
-9 -20 -33 -55 0
-9 -20 -33 -57 0
-9 -20 -39 -43 0
-9 -20 -39 -55 0
-9 -20 -39 -57 0
-9 -20 -43 -55 0
-9 -20 -43 -57 0
-9 -20 -55 -57 0
-9 -26 -33 -39 0
-9 -26 -33 -43 0
-9 -26 -33 -55 0
-9 -26 -33 -57 0
-9 -26 -39 -43 0
-9 -26 -39 -55 0
-9 -26 -39 -57 0
-9 -26 -43 -55 0
-9 -26 -43 -57 0
-9 -26 -55 -57 0
-9 -33 -39 -43 0
-9 -33 -39 -55 0
-9 -33 -39 -57 0
-9 -33 -43 -55 0
-9 -33 -43 -57 0
-9 -33 -55 -57 0
-9 -39 -43 -55 0
-9 -39 -43 -57 0
-9 -39 -55 -57 0
-9 -43 -55 -57 0
-20 -26 -33 -39 0
-20 -26 -33 -43 0
-20 -26 -33 -55 0
-20 -26 -33 -57 0
-20 -26 -39 -43 0
-20 -26 -39 -55 0
-20 -26 -39 -57 0
-20 -26 -43 -55 0
-20 -26 -43 -57 0
-20 -26 -55 -57 0
-20 -33 -39 -43 0
-20 -33 -39 -55 0
-20 -33 -39 -57 0
-20 -33 -43 -55 0
-20 -33 -43 -57 0
-20 -33 -55 -57 0
-20 -39 -43 -55 0
-20 -39 -43 -57 0
-20 -39 -55 -57 0
-20 -43 -55 -57 0
-26 -33 -39 -43 0
-26 -33 -39 -55 0
-26 -33 -39 -57 0
-26 -33 -43 -55 0
-26 -33 -43 -57 0
-26 -33 -55 -57 0
-26 -39 -43 -55 0
-26 -39 -43 -57 0
-26 -39 -55 -57 0
-26 -43 -55 -57 0
-33 -39 -43 -55 0
-33 -39 -43 -57 0
-33 -39 -55 -57 0
-33 -43 -55 -57 0
-39 -43 -55 -57 0
-6 -9 -18 -28 0
-6 -9 -18 -34 0
-6 -9 -18 -37 0
-6 -9 -18 -46 0
-6 -9 -18 -51 0
-6 -9 -18 -57 0
-6 -9 -28 -34 0
-6 -9 -28 -37 0
-6 -9 -28 -46 0
-6 -9 -28 -51 0
-6 -9 -28 -57 0
-6 -9 -34 -37 0
-6 -9 -34 -46 0
-6 -9 -34 -51 0
-6 -9 -34 -57 0
-6 -9 -37 -46 0
-6 -9 -37 -51 0
-6 -9 -37 -57 0
-6 -9 -46 -51 0
-6 -9 -46 -57 0
-6 -9 -51 -57 0
-6 -18 -28 -34 0
-6 -18 -28 -37 0
-6 -18 -28 -46 0
-6 -18 -28 -51 0
-6 -18 -28 -57 0
-6 -18 -34 -37 0
-6 -18 -34 -46 0
-6 -18 -34 -51 0
-6 -18 -34 -57 0
-6 -18 -37 -46 0
-6 -18 -37 -51 0
-6 -18 -37 -57 0
-6 -18 -46 -51 0
-6 -18 -46 -57 0
-6 -18 -51 -57 0
-6 -28 -34 -37 0
-6 -28 -34 -46 0
-6 -28 -34 -51 0
-6 -28 -34 -57 0
-6 -28 -37 -46 0
-6 -28 -37 -51 0
-6 -28 -37 -57 0
-6 -28 -46 -51 0
-6 -28 -46 -57 0
-6 -28 -51 -57 0
-6 -34 -37 -46 0
-6 -34 -37 -51 0
-6 -34 -37 -57 0
-6 -34 -46 -51 0
-6 -34 -46 -57 0
-6 -34 -51 -57 0
-6 -37 -46 -51 0
-6 -37 -46 -57 0
-6 -37 -51 -57 0
-6 -46 -51 -57 0
-9 -18 -28 -34 0
-9 -18 -28 -37 0
-9 -18 -28 -46 0
-9 -18 -28 -51 0
-9 -18 -28 -57 0
-9 -18 -34 -37 0
-9 -18 -34 -46 0
-9 -18 -34 -51 0
-9 -18 -34 -57 0
-9 -18 -37 -46 0
-9 -18 -37 -51 0
-9 -18 -37 -57 0
-9 -18 -46 -51 0
-9 -18 -46 -57 0
-9 -18 -51 -57 0
-9 -28 -34 -37 0
-9 -28 -34 -46 0
-9 -28 -34 -51 0
-9 -28 -34 -57 0
-9 -28 -37 -46 0
-9 -28 -37 -51 0
-9 -28 -37 -57 0
-9 -28 -46 -51 0
-9 -28 -46 -57 0
-9 -28 -51 -57 0
-9 -34 -37 -46 0
-9 -34 -37 -51 0
-9 -34 -37 -57 0
-9 -34 -46 -51 0
-9 -34 -46 -57 0
-9 -34 -51 -57 0
-9 -37 -46 -51 0
-9 -37 -46 -57 0
-9 -37 -51 -57 0
-9 -46 -51 -57 0
-18 -28 -34 -37 0
-18 -28 -34 -46 0
-18 -28 -34 -51 0
-18 -28 -34 -57 0
-18 -28 -37 -46 0
-18 -28 -37 -51 0
-18 -28 -37 -57 0
-18 -28 -46 -51 0
-18 -28 -46 -57 0
-18 -28 -51 -57 0
-18 -34 -37 -46 0
-18 -34 -37 -51 0
-18 -34 -37 -57 0
-18 -34 -46 -51 0
-18 -34 -46 -57 0
-18 -34 -51 -57 0
-18 -37 -46 -51 0
-18 -37 -46 -57 0
-18 -37 -51 -57 0
-18 -46 -51 -57 0
-28 -34 -37 -46 0
-28 -34 -37 -51 0
-28 -34 -37 -57 0
-28 -34 -46 -51 0
-28 -34 -46 -57 0
-28 -34 -51 -57 0
-28 -37 -46 -51 0
-28 -37 -46 -57 0
-28 -37 -51 -57 0
-28 -46 -51 -57 0
-34 -37 -46 -51 0
-34 -37 -46 -57 0
-34 -37 -51 -57 0
-34 -46 -51 -57 0
-37 -46 -51 -57 0
-4 -8 -20 -27 0
-4 -8 -20 -32 0
-4 -8 -20 -38 0
-4 -8 -20 -47 0
-4 -8 -20 -56 0
-4 -8 -20 -60 0
-4 -8 -27 -32 0
-4 -8 -27 -38 0
-4 -8 -27 -47 0
-4 -8 -27 -56 0
-4 -8 -27 -60 0
-4 -8 -32 -38 0
-4 -8 -32 -47 0
-4 -8 -32 -56 0
-4 -8 -32 -60 0
-4 -8 -38 -47 0
-4 -8 -38 -56 0
-4 -8 -38 -60 0
-4 -8 -47 -56 0
-4 -8 -47 -60 0
-4 -8 -56 -60 0
-4 -20 -27 -32 0
-4 -20 -27 -38 0
-4 -20 -27 -47 0
-4 -20 -27 -56 0
-4 -20 -27 -60 0
-4 -20 -32 -38 0
-4 -20 -32 -47 0
-4 -20 -32 -56 0
-4 -20 -32 -60 0
-4 -20 -38 -47 0
-4 -20 -38 -56 0
-4 -20 -38 -60 0
-4 -20 -47 -56 0
-4 -20 -47 -60 0
-4 -20 -56 -60 0
-4 -27 -32 -38 0
-4 -27 -32 -47 0
-4 -27 -32 -56 0
-4 -27 -32 -60 0
-4 -27 -38 -47 0
-4 -27 -38 -56 0
-4 -27 -38 -60 0
-4 -27 -47 -56 0
-4 -27 -47 -60 0
-4 -27 -56 -60 0
-4 -32 -38 -47 0
-4 -32 -38 -56 0
-4 -32 -38 -60 0
-4 -32 -47 -56 0
-4 -32 -47 -60 0
-4 -32 -56 -60 0
-4 -38 -47 -56 0
-4 -38 -47 -60 0
-4 -38 -56 -60 0
-4 -47 -56 -60 0
-8 -20 -27 -32 0
-8 -20 -27 -38 0
-8 -20 -27 -47 0
-8 -20 -27 -56 0
-8 -20 -27 -60 0
-8 -20 -32 -38 0
-8 -20 -32 -47 0
-8 -20 -32 -56 0
-8 -20 -32 -60 0
-8 -20 -38 -47 0
-8 -20 -38 -56 0
-8 -20 -38 -60 0
-8 -20 -47 -56 0
-8 -20 -47 -60 0
-8 -20 -56 -60 0
-8 -27 -32 -38 0
-8 -27 -32 -47 0
-8 -27 -32 -56 0
-8 -27 -32 -60 0
-8 -27 -38 -47 0
-8 -27 -38 -56 0
-8 -27 -38 -60 0
-8 -27 -47 -56 0
-8 -27 -47 -60 0
-8 -27 -56 -60 0
-8 -32 -38 -47 0
-8 -32 -38 -56 0
-8 -32 -38 -60 0
-8 -32 -47 -56 0
-8 -32 -47 -60 0
-8 -32 -56 -60 0
-8 -38 -47 -56 0
-8 -38 -47 -60 0
-8 -38 -56 -60 0
-8 -47 -56 -60 0
-20 -27 -32 -38 0
-20 -27 -32 -47 0
-20 -27 -32 -56 0
-20 -27 -32 -60 0
-20 -27 -38 -47 0
-20 -27 -38 -56 0
-20 -27 -38 -60 0
-20 -27 -47 -56 0
-20 -27 -47 -60 0
-20 -27 -56 -60 0
-20 -32 -38 -47 0
-20 -32 -38 -56 0
-20 -32 -38 -60 0
-20 -32 -47 -56 0
-20 -32 -47 -60 0
-20 -32 -56 -60 0
-20 -38 -47 -56 0
-20 -38 -47 -60 0
-20 -38 -56 -60 0
-20 -47 -56 -60 0
-27 -32 -38 -47 0
-27 -32 -38 -56 0
-27 -32 -38 -60 0
-27 -32 -47 -56 0
-27 -32 -47 -60 0
-27 -32 -56 -60 0
-27 -38 -47 -56 0
-27 -38 -47 -60 0
-27 -38 -56 -60 0
-27 -47 -56 -60 0
-32 -38 -47 -56 0
-32 -38 -47 -60 0
-32 -38 -56 -60 0
-32 -47 -56 -60 0
-38 -47 -56 -60 0
-5 -8 -20 -23 0
-5 -8 -20 -34 0
-5 -8 -20 -37 0
-5 -8 -20 -49 0
-5 -8 -20 -50 0
-5 -8 -20 -62 0
-5 -8 -23 -34 0
-5 -8 -23 -37 0
-5 -8 -23 -49 0
-5 -8 -23 -50 0
-5 -8 -23 -62 0
-5 -8 -34 -37 0
-5 -8 -34 -49 0
-5 -8 -34 -50 0
-5 -8 -34 -62 0
-5 -8 -37 -49 0
-5 -8 -37 -50 0
-5 -8 -37 -62 0
-5 -8 -49 -50 0
-5 -8 -49 -62 0
-5 -8 -50 -62 0
-5 -20 -23 -34 0
-5 -20 -23 -37 0
-5 -20 -23 -49 0
-5 -20 -23 -50 0
-5 -20 -23 -62 0
-5 -20 -34 -37 0
-5 -20 -34 -49 0
-5 -20 -34 -50 0
-5 -20 -34 -62 0
-5 -20 -37 -49 0
-5 -20 -37 -50 0
-5 -20 -37 -62 0
-5 -20 -49 -50 0
-5 -20 -49 -62 0
-5 -20 -50 -62 0
-5 -23 -34 -37 0
-5 -23 -34 -49 0
-5 -23 -34 -50 0
-5 -23 -34 -62 0
-5 -23 -37 -49 0
-5 -23 -37 -50 0
-5 -23 -37 -62 0
-5 -23 -49 -50 0
-5 -23 -49 -62 0
-5 -23 -50 -62 0
-5 -34 -37 -49 0
-5 -34 -37 -50 0
-5 -34 -37 -62 0
-5 -34 -49 -50 0
-5 -34 -49 -62 0
-5 -34 -50 -62 0
-5 -37 -49 -50 0
-5 -37 -49 -62 0
-5 -37 -50 -62 0
-5 -49 -50 -62 0
-8 -20 -23 -34 0
-8 -20 -23 -37 0
-8 -20 -23 -49 0
-8 -20 -23 -50 0
-8 -20 -23 -62 0
-8 -20 -34 -37 0
-8 -20 -34 -49 0
-8 -20 -34 -50 0
-8 -20 -34 -62 0
-8 -20 -37 -49 0
-8 -20 -37 -50 0
-8 -20 -37 -62 0
-8 -20 -49 -50 0
-8 -20 -49 -62 0
-8 -20 -50 -62 0
-8 -23 -34 -37 0
-8 -23 -34 -49 0
-8 -23 -34 -50 0
-8 -23 -34 -62 0
-8 -23 -37 -49 0
-8 -23 -37 -50 0
-8 -23 -37 -62 0
-8 -23 -49 -50 0
-8 -23 -49 -62 0
-8 -23 -50 -62 0
-8 -34 -37 -49 0
-8 -34 -37 -50 0
-8 -34 -37 -62 0
-8 -34 -49 -50 0
-8 -34 -49 -62 0
-8 -34 -50 -62 0
-8 -37 -49 -50 0
-8 -37 -49 -62 0
-8 -37 -50 -62 0
-8 -49 -50 -62 0
-20 -23 -34 -37 0
-20 -23 -34 -49 0
-20 -23 -34 -50 0
-20 -23 -34 -62 0
-20 -23 -37 -49 0
-20 -23 -37 -50 0
-20 -23 -37 -62 0
-20 -23 -49 -50 0
-20 -23 -49 -62 0
-20 -23 -50 -62 0
-20 -34 -37 -49 0
-20 -34 -37 -50 0
-20 -34 -37 -62 0
-20 -34 -49 -50 0
-20 -34 -49 -62 0
-20 -34 -50 -62 0
-20 -37 -49 -50 0
-20 -37 -49 -62 0
-20 -37 -50 -62 0
-20 -49 -50 -62 0
-23 -34 -37 -49 0
-23 -34 -37 -50 0
-23 -34 -37 -62 0
-23 -34 -49 -50 0
-23 -34 -49 -62 0
-23 -34 -50 -62 0
-23 -37 -49 -50 0
-23 -37 -49 -62 0
-23 -37 -50 -62 0
-23 -49 -50 -62 0
-34 -37 -49 -50 0
-34 -37 -49 -62 0
-34 -37 -50 -62 0
-34 -49 -50 -62 0
-37 -49 -50 -62 0
-4 -11 -17 -23 0
-4 -11 -17 -34 0
-4 -11 -17 -40 0
-4 -11 -17 -43 0
-4 -11 -17 -51 0
-4 -11 -17 -60 0
-4 -11 -23 -34 0
-4 -11 -23 -40 0
-4 -11 -23 -43 0
-4 -11 -23 -51 0
-4 -11 -23 -60 0
-4 -11 -34 -40 0
-4 -11 -34 -43 0
-4 -11 -34 -51 0
-4 -11 -34 -60 0
-4 -11 -40 -43 0
-4 -11 -40 -51 0
-4 -11 -40 -60 0
-4 -11 -43 -51 0
-4 -11 -43 -60 0
-4 -11 -51 -60 0
-4 -17 -23 -34 0
-4 -17 -23 -40 0
-4 -17 -23 -43 0
-4 -17 -23 -51 0
-4 -17 -23 -60 0
-4 -17 -34 -40 0
-4 -17 -34 -43 0
-4 -17 -34 -51 0
-4 -17 -34 -60 0
-4 -17 -40 -43 0
-4 -17 -40 -51 0
-4 -17 -40 -60 0
-4 -17 -43 -51 0
-4 -17 -43 -60 0
-4 -17 -51 -60 0
-4 -23 -34 -40 0
-4 -23 -34 -43 0
-4 -23 -34 -51 0
-4 -23 -34 -60 0
-4 -23 -40 -43 0
-4 -23 -40 -51 0
-4 -23 -40 -60 0
-4 -23 -43 -51 0
-4 -23 -43 -60 0
-4 -23 -51 -60 0
-4 -34 -40 -43 0
-4 -34 -40 -51 0
-4 -34 -40 -60 0
-4 -34 -43 -51 0
-4 -34 -43 -60 0
-4 -34 -51 -60 0
-4 -40 -43 -51 0
-4 -40 -43 -60 0
-4 -40 -51 -60 0
-4 -43 -51 -60 0
-11 -17 -23 -34 0
-11 -17 -23 -40 0
-11 -17 -23 -43 0
-11 -17 -23 -51 0
-11 -17 -23 -60 0
-11 -17 -34 -40 0
-11 -17 -34 -43 0
-11 -17 -34 -51 0
-11 -17 -34 -60 0
-11 -17 -40 -43 0
-11 -17 -40 -51 0
-11 -17 -40 -60 0
-11 -17 -43 -51 0
-11 -17 -43 -60 0
-11 -17 -51 -60 0
-11 -23 -34 -40 0
-11 -23 -34 -43 0
-11 -23 -34 -51 0
-11 -23 -34 -60 0
-11 -23 -40 -43 0
-11 -23 -40 -51 0
-11 -23 -40 -60 0
-11 -23 -43 -51 0
-11 -23 -43 -60 0
-11 -23 -51 -60 0
-11 -34 -40 -43 0
-11 -34 -40 -51 0
-11 -34 -40 -60 0
-11 -34 -43 -51 0
-11 -34 -43 -60 0
-11 -34 -51 -60 0
-11 -40 -43 -51 0
-11 -40 -43 -60 0
-11 -40 -51 -60 0
-11 -43 -51 -60 0
-17 -23 -34 -40 0
-17 -23 -34 -43 0
-17 -23 -34 -51 0
-17 -23 -34 -60 0
-17 -23 -40 -43 0
-17 -23 -40 -51 0
-17 -23 -40 -60 0
-17 -23 -43 -51 0
-17 -23 -43 -60 0
-17 -23 -51 -60 0
-17 -34 -40 -43 0
-17 -34 -40 -51 0
-17 -34 -40 -60 0
-17 -34 -43 -51 0
-17 -34 -43 -60 0
-17 -34 -51 -60 0
-17 -40 -43 -51 0
-17 -40 -43 -60 0
-17 -40 -51 -60 0
-17 -43 -51 -60 0
-23 -34 -40 -43 0
-23 -34 -40 -51 0
-23 -34 -40 -60 0
-23 -34 -43 -51 0
-23 -34 -43 -60 0
-23 -34 -51 -60 0
-23 -40 -43 -51 0
-23 -40 -43 -60 0
-23 -40 -51 -60 0
-23 -43 -51 -60 0
-34 -40 -43 -51 0
-34 -40 -43 -60 0
-34 -40 -51 -60 0
-34 -43 -51 -60 0
-40 -43 -51 -60 0
-5 -8 -15 -22 0
-5 -8 -15 -34 0
-5 -8 -15 -39 0
-5 -8 -15 -44 0
-5 -8 -15 -50 0
-5 -8 -15 -62 0
-5 -8 -22 -34 0
-5 -8 -22 -39 0
-5 -8 -22 -44 0
-5 -8 -22 -50 0
-5 -8 -22 -62 0
-5 -8 -34 -39 0
-5 -8 -34 -44 0
-5 -8 -34 -50 0
-5 -8 -34 -62 0
-5 -8 -39 -44 0
-5 -8 -39 -50 0
-5 -8 -39 -62 0
-5 -8 -44 -50 0
-5 -8 -44 -62 0
-5 -8 -50 -62 0
-5 -15 -22 -34 0
-5 -15 -22 -39 0
-5 -15 -22 -44 0
-5 -15 -22 -50 0
-5 -15 -22 -62 0
-5 -15 -34 -39 0
-5 -15 -34 -44 0
-5 -15 -34 -50 0
-5 -15 -34 -62 0
-5 -15 -39 -44 0
-5 -15 -39 -50 0
-5 -15 -39 -62 0
-5 -15 -44 -50 0
-5 -15 -44 -62 0
-5 -15 -50 -62 0
-5 -22 -34 -39 0
-5 -22 -34 -44 0
-5 -22 -34 -50 0
-5 -22 -34 -62 0
-5 -22 -39 -44 0
-5 -22 -39 -50 0
-5 -22 -39 -62 0
-5 -22 -44 -50 0
-5 -22 -44 -62 0
-5 -22 -50 -62 0
-5 -34 -39 -44 0
-5 -34 -39 -50 0
-5 -34 -39 -62 0
-5 -34 -44 -50 0
-5 -34 -44 -62 0
-5 -34 -50 -62 0
-5 -39 -44 -50 0
-5 -39 -44 -62 0
-5 -39 -50 -62 0
-5 -44 -50 -62 0
-8 -15 -22 -34 0
-8 -15 -22 -39 0
-8 -15 -22 -44 0
-8 -15 -22 -50 0
-8 -15 -22 -62 0
-8 -15 -34 -39 0
-8 -15 -34 -44 0
-8 -15 -34 -50 0
-8 -15 -34 -62 0
-8 -15 -39 -44 0
-8 -15 -39 -50 0
-8 -15 -39 -62 0
-8 -15 -44 -50 0
-8 -15 -44 -62 0
-8 -15 -50 -62 0
-8 -22 -34 -39 0
-8 -22 -34 -44 0
-8 -22 -34 -50 0
-8 -22 -34 -62 0
-8 -22 -39 -44 0
-8 -22 -39 -50 0
-8 -22 -39 -62 0
-8 -22 -44 -50 0
-8 -22 -44 -62 0
-8 -22 -50 -62 0
-8 -34 -39 -44 0
-8 -34 -39 -50 0
-8 -34 -39 -62 0
-8 -34 -44 -50 0
-8 -34 -44 -62 0
-8 -34 -50 -62 0
-8 -39 -44 -50 0
-8 -39 -44 -62 0
-8 -39 -50 -62 0
-8 -44 -50 -62 0
-15 -22 -34 -39 0
-15 -22 -34 -44 0
-15 -22 -34 -50 0
-15 -22 -34 -62 0
-15 -22 -39 -44 0
-15 -22 -39 -50 0
-15 -22 -39 -62 0
-15 -22 -44 -50 0
-15 -22 -44 -62 0
-15 -22 -50 -62 0
-15 -34 -39 -44 0
-15 -34 -39 -50 0
-15 -34 -39 -62 0
-15 -34 -44 -50 0
-15 -34 -44 -62 0
-15 -34 -50 -62 0
-15 -39 -44 -50 0
-15 -39 -44 -62 0
-15 -39 -50 -62 0
-15 -44 -50 -62 0
-22 -34 -39 -44 0
-22 -34 -39 -50 0
-22 -34 -39 -62 0
-22 -34 -44 -50 0
-22 -34 -44 -62 0
-22 -34 -50 -62 0
-22 -39 -44 -50 0
-22 -39 -44 -62 0
-22 -39 -50 -62 0
-22 -44 -50 -62 0
-34 -39 -44 -50 0
-34 -39 -44 -62 0
-34 -39 -50 -62 0
-34 -44 -50 -62 0
-39 -44 -50 -62 0
-6 -12 -18 -23 0
-6 -12 -18 -35 0
-6 -12 -18 -37 0
-6 -12 -18 -45 0
-6 -12 -18 -53 0
-6 -12 -18 -59 0
-6 -12 -23 -35 0
-6 -12 -23 -37 0
-6 -12 -23 -45 0
-6 -12 -23 -53 0
-6 -12 -23 -59 0
-6 -12 -35 -37 0
-6 -12 -35 -45 0
-6 -12 -35 -53 0
-6 -12 -35 -59 0
-6 -12 -37 -45 0
-6 -12 -37 -53 0
-6 -12 -37 -59 0
-6 -12 -45 -53 0
-6 -12 -45 -59 0
-6 -12 -53 -59 0
-6 -18 -23 -35 0
-6 -18 -23 -37 0
-6 -18 -23 -45 0
-6 -18 -23 -53 0
-6 -18 -23 -59 0
-6 -18 -35 -37 0
-6 -18 -35 -45 0
-6 -18 -35 -53 0
-6 -18 -35 -59 0
-6 -18 -37 -45 0
-6 -18 -37 -53 0
-6 -18 -37 -59 0
-6 -18 -45 -53 0
-6 -18 -45 -59 0
-6 -18 -53 -59 0
-6 -23 -35 -37 0
-6 -23 -35 -45 0
-6 -23 -35 -53 0
-6 -23 -35 -59 0
-6 -23 -37 -45 0
-6 -23 -37 -53 0
-6 -23 -37 -59 0
-6 -23 -45 -53 0
-6 -23 -45 -59 0
-6 -23 -53 -59 0
-6 -35 -37 -45 0
-6 -35 -37 -53 0
-6 -35 -37 -59 0
-6 -35 -45 -53 0
-6 -35 -45 -59 0
-6 -35 -53 -59 0
-6 -37 -45 -53 0
-6 -37 -45 -59 0
-6 -37 -53 -59 0
-6 -45 -53 -59 0
-12 -18 -23 -35 0
-12 -18 -23 -37 0
-12 -18 -23 -45 0
-12 -18 -23 -53 0
-12 -18 -23 -59 0
-12 -18 -35 -37 0
-12 -18 -35 -45 0
-12 -18 -35 -53 0
-12 -18 -35 -59 0
-12 -18 -37 -45 0
-12 -18 -37 -53 0
-12 -18 -37 -59 0
-12 -18 -45 -53 0
-12 -18 -45 -59 0
-12 -18 -53 -59 0
-12 -23 -35 -37 0
-12 -23 -35 -45 0
-12 -23 -35 -53 0
-12 -23 -35 -59 0
-12 -23 -37 -45 0
-12 -23 -37 -53 0
-12 -23 -37 -59 0
-12 -23 -45 -53 0
-12 -23 -45 -59 0
-12 -23 -53 -59 0
-12 -35 -37 -45 0
-12 -35 -37 -53 0
-12 -35 -37 -59 0
-12 -35 -45 -53 0
-12 -35 -45 -59 0
-12 -35 -53 -59 0
-12 -37 -45 -53 0
-12 -37 -45 -59 0
-12 -37 -53 -59 0
-12 -45 -53 -59 0
-18 -23 -35 -37 0
-18 -23 -35 -45 0
-18 -23 -35 -53 0
-18 -23 -35 -59 0
-18 -23 -37 -45 0
-18 -23 -37 -53 0
-18 -23 -37 -59 0
-18 -23 -45 -53 0
-18 -23 -45 -59 0
-18 -23 -53 -59 0
-18 -35 -37 -45 0
-18 -35 -37 -53 0
-18 -35 -37 -59 0
-18 -35 -45 -53 0
-18 -35 -45 -59 0
-18 -35 -53 -59 0
-18 -37 -45 -53 0
-18 -37 -45 -59 0
-18 -37 -53 -59 0
-18 -45 -53 -59 0
-23 -35 -37 -45 0
-23 -35 -37 -53 0
-23 -35 -37 -59 0
-23 -35 -45 -53 0
-23 -35 -45 -59 0
-23 -35 -53 -59 0
-23 -37 -45 -53 0
-23 -37 -45 -59 0
-23 -37 -53 -59 0
-23 -45 -53 -59 0
-35 -37 -45 -53 0
-35 -37 -45 -59 0
-35 -37 -53 -59 0
-35 -45 -53 -59 0
-37 -45 -53 -59 0
-7 -14 -20 -24 0
-7 -14 -20 -31 0
-7 -14 -20 -40 0
-7 -14 -20 -49 0
-7 -14 -20 -50 0
-7 -14 -20 -61 0
-7 -14 -24 -31 0
-7 -14 -24 -40 0
-7 -14 -24 -49 0
-7 -14 -24 -50 0
-7 -14 -24 -61 0
-7 -14 -31 -40 0
-7 -14 -31 -49 0
-7 -14 -31 -50 0
-7 -14 -31 -61 0
-7 -14 -40 -49 0
-7 -14 -40 -50 0
-7 -14 -40 -61 0
-7 -14 -49 -50 0
-7 -14 -49 -61 0
-7 -14 -50 -61 0
-7 -20 -24 -31 0
-7 -20 -24 -40 0
-7 -20 -24 -49 0
-7 -20 -24 -50 0
-7 -20 -24 -61 0
-7 -20 -31 -40 0
-7 -20 -31 -49 0
-7 -20 -31 -50 0
-7 -20 -31 -61 0
-7 -20 -40 -49 0
-7 -20 -40 -50 0
-7 -20 -40 -61 0
-7 -20 -49 -50 0
-7 -20 -49 -61 0
-7 -20 -50 -61 0
-7 -24 -31 -40 0
-7 -24 -31 -49 0
-7 -24 -31 -50 0
-7 -24 -31 -61 0
-7 -24 -40 -49 0
-7 -24 -40 -50 0
-7 -24 -40 -61 0
-7 -24 -49 -50 0
-7 -24 -49 -61 0
-7 -24 -50 -61 0
-7 -31 -40 -49 0
-7 -31 -40 -50 0
-7 -31 -40 -61 0
-7 -31 -49 -50 0
-7 -31 -49 -61 0
-7 -31 -50 -61 0
-7 -40 -49 -50 0
-7 -40 -49 -61 0
-7 -40 -50 -61 0
-7 -49 -50 -61 0
-14 -20 -24 -31 0
-14 -20 -24 -40 0
-14 -20 -24 -49 0
-14 -20 -24 -50 0
-14 -20 -24 -61 0
-14 -20 -31 -40 0
-14 -20 -31 -49 0
-14 -20 -31 -50 0
-14 -20 -31 -61 0
-14 -20 -40 -49 0
-14 -20 -40 -50 0
-14 -20 -40 -61 0
-14 -20 -49 -50 0
-14 -20 -49 -61 0
-14 -20 -50 -61 0
-14 -24 -31 -40 0
-14 -24 -31 -49 0
-14 -24 -31 -50 0
-14 -24 -31 -61 0
-14 -24 -40 -49 0
-14 -24 -40 -50 0
-14 -24 -40 -61 0
-14 -24 -49 -50 0
-14 -24 -49 -61 0
-14 -24 -50 -61 0
-14 -31 -40 -49 0
-14 -31 -40 -50 0
-14 -31 -40 -61 0
-14 -31 -49 -50 0
-14 -31 -49 -61 0
-14 -31 -50 -61 0
-14 -40 -49 -50 0
-14 -40 -49 -61 0
-14 -40 -50 -61 0
-14 -49 -50 -61 0
-20 -24 -31 -40 0
-20 -24 -31 -49 0
-20 -24 -31 -50 0
-20 -24 -31 -61 0
-20 -24 -40 -49 0
-20 -24 -40 -50 0
-20 -24 -40 -61 0
-20 -24 -49 -50 0
-20 -24 -49 -61 0
-20 -24 -50 -61 0
-20 -31 -40 -49 0
-20 -31 -40 -50 0
-20 -31 -40 -61 0
-20 -31 -49 -50 0
-20 -31 -49 -61 0
-20 -31 -50 -61 0
-20 -40 -49 -50 0
-20 -40 -49 -61 0
-20 -40 -50 -61 0
-20 -49 -50 -61 0
-24 -31 -40 -49 0
-24 -31 -40 -50 0
-24 -31 -40 -61 0
-24 -31 -49 -50 0
-24 -31 -49 -61 0
-24 -31 -50 -61 0
-24 -40 -49 -50 0
-24 -40 -49 -61 0
-24 -40 -50 -61 0
-24 -49 -50 -61 0
-31 -40 -49 -50 0
-31 -40 -49 -61 0
-31 -40 -50 -61 0
-31 -49 -50 -61 0
-40 -49 -50 -61 0
-2 -9 -15 -23 0
-2 -9 -15 -31 0
-2 -9 -15 -37 0
-2 -9 -15 -47 0
-2 -9 -15 -54 0
-2 -9 -15 -63 0
-2 -9 -23 -31 0
-2 -9 -23 -37 0
-2 -9 -23 -47 0
-2 -9 -23 -54 0
-2 -9 -23 -63 0
-2 -9 -31 -37 0
-2 -9 -31 -47 0
-2 -9 -31 -54 0
-2 -9 -31 -63 0
-2 -9 -37 -47 0
-2 -9 -37 -54 0
-2 -9 -37 -63 0
-2 -9 -47 -54 0
-2 -9 -47 -63 0
-2 -9 -54 -63 0
-2 -15 -23 -31 0
-2 -15 -23 -37 0
-2 -15 -23 -47 0
-2 -15 -23 -54 0
-2 -15 -23 -63 0
-2 -15 -31 -37 0
-2 -15 -31 -47 0
-2 -15 -31 -54 0
-2 -15 -31 -63 0
-2 -15 -37 -47 0
-2 -15 -37 -54 0
-2 -15 -37 -63 0
-2 -15 -47 -54 0
-2 -15 -47 -63 0
-2 -15 -54 -63 0
-2 -23 -31 -37 0
-2 -23 -31 -47 0
-2 -23 -31 -54 0
-2 -23 -31 -63 0
-2 -23 -37 -47 0
-2 -23 -37 -54 0
-2 -23 -37 -63 0
-2 -23 -47 -54 0
-2 -23 -47 -63 0
-2 -23 -54 -63 0
-2 -31 -37 -47 0
-2 -31 -37 -54 0
-2 -31 -37 -63 0
-2 -31 -47 -54 0
-2 -31 -47 -63 0
-2 -31 -54 -63 0
-2 -37 -47 -54 0
-2 -37 -47 -63 0
-2 -37 -54 -63 0
-2 -47 -54 -63 0
-9 -15 -23 -31 0
-9 -15 -23 -37 0
-9 -15 -23 -47 0
-9 -15 -23 -54 0
-9 -15 -23 -63 0
-9 -15 -31 -37 0
-9 -15 -31 -47 0
-9 -15 -31 -54 0
-9 -15 -31 -63 0
-9 -15 -37 -47 0
-9 -15 -37 -54 0
-9 -15 -37 -63 0
-9 -15 -47 -54 0
-9 -15 -47 -63 0
-9 -15 -54 -63 0
-9 -23 -31 -37 0
-9 -23 -31 -47 0
-9 -23 -31 -54 0
-9 -23 -31 -63 0
-9 -23 -37 -47 0
-9 -23 -37 -54 0
-9 -23 -37 -63 0
-9 -23 -47 -54 0
-9 -23 -47 -63 0
-9 -23 -54 -63 0
-9 -31 -37 -47 0
-9 -31 -37 -54 0
-9 -31 -37 -63 0
-9 -31 -47 -54 0
-9 -31 -47 -63 0
-9 -31 -54 -63 0
-9 -37 -47 -54 0
-9 -37 -47 -63 0
-9 -37 -54 -63 0
-9 -47 -54 -63 0
-15 -23 -31 -37 0
-15 -23 -31 -47 0
-15 -23 -31 -54 0
-15 -23 -31 -63 0
-15 -23 -37 -47 0
-15 -23 -37 -54 0
-15 -23 -37 -63 0
-15 -23 -47 -54 0
-15 -23 -47 -63 0
-15 -23 -54 -63 0
-15 -31 -37 -47 0
-15 -31 -37 -54 0
-15 -31 -37 -63 0
-15 -31 -47 -54 0
-15 -31 -47 -63 0
-15 -31 -54 -63 0
-15 -37 -47 -54 0
-15 -37 -47 -63 0
-15 -37 -54 -63 0
-15 -47 -54 -63 0
-23 -31 -37 -47 0
-23 -31 -37 -54 0
-23 -31 -37 -63 0
-23 -31 -47 -54 0
-23 -31 -47 -63 0
-23 -31 -54 -63 0
-23 -37 -47 -54 0
-23 -37 -47 -63 0
-23 -37 -54 -63 0
-23 -47 -54 -63 0
-31 -37 -47 -54 0
-31 -37 -47 -63 0
-31 -37 -54 -63 0
-31 -47 -54 -63 0
-37 -47 -54 -63 0
-3 -12 -18 -26 0
-3 -12 -18 -32 0
-3 -12 -18 -38 0
-3 -12 -18 -48 0
-3 -12 -18 -53 0
-3 -12 -18 -57 0
-3 -12 -26 -32 0
-3 -12 -26 -38 0
-3 -12 -26 -48 0
-3 -12 -26 -53 0
-3 -12 -26 -57 0
-3 -12 -32 -38 0
-3 -12 -32 -48 0
-3 -12 -32 -53 0
-3 -12 -32 -57 0
-3 -12 -38 -48 0
-3 -12 -38 -53 0
-3 -12 -38 -57 0
-3 -12 -48 -53 0
-3 -12 -48 -57 0
-3 -12 -53 -57 0
-3 -18 -26 -32 0
-3 -18 -26 -38 0
-3 -18 -26 -48 0
-3 -18 -26 -53 0
-3 -18 -26 -57 0
-3 -18 -32 -38 0
-3 -18 -32 -48 0
-3 -18 -32 -53 0
-3 -18 -32 -57 0
-3 -18 -38 -48 0
-3 -18 -38 -53 0
-3 -18 -38 -57 0
-3 -18 -48 -53 0
-3 -18 -48 -57 0
-3 -18 -53 -57 0
-3 -26 -32 -38 0
-3 -26 -32 -48 0
-3 -26 -32 -53 0
-3 -26 -32 -57 0
-3 -26 -38 -48 0
-3 -26 -38 -53 0
-3 -26 -38 -57 0
-3 -26 -48 -53 0
-3 -26 -48 -57 0
-3 -26 -53 -57 0
-3 -32 -38 -48 0
-3 -32 -38 -53 0
-3 -32 -38 -57 0
-3 -32 -48 -53 0
-3 -32 -48 -57 0
-3 -32 -53 -57 0
-3 -38 -48 -53 0
-3 -38 -48 -57 0
-3 -38 -53 -57 0
-3 -48 -53 -57 0
-12 -18 -26 -32 0
-12 -18 -26 -38 0
-12 -18 -26 -48 0
-12 -18 -26 -53 0
-12 -18 -26 -57 0
-12 -18 -32 -38 0
-12 -18 -32 -48 0
-12 -18 -32 -53 0
-12 -18 -32 -57 0
-12 -18 -38 -48 0
-12 -18 -38 -53 0
-12 -18 -38 -57 0
-12 -18 -48 -53 0
-12 -18 -48 -57 0
-12 -18 -53 -57 0
-12 -26 -32 -38 0
-12 -26 -32 -48 0
-12 -26 -32 -53 0
-12 -26 -32 -57 0
-12 -26 -38 -48 0
-12 -26 -38 -53 0
-12 -26 -38 -57 0
-12 -26 -48 -53 0
-12 -26 -48 -57 0
-12 -26 -53 -57 0
-12 -32 -38 -48 0
-12 -32 -38 -53 0
-12 -32 -38 -57 0
-12 -32 -48 -53 0
-12 -32 -48 -57 0
-12 -32 -53 -57 0
-12 -38 -48 -53 0
-12 -38 -48 -57 0
-12 -38 -53 -57 0
-12 -48 -53 -57 0
-18 -26 -32 -38 0
-18 -26 -32 -48 0
-18 -26 -32 -53 0
-18 -26 -32 -57 0
-18 -26 -38 -48 0
-18 -26 -38 -53 0
-18 -26 -38 -57 0
-18 -26 -48 -53 0
-18 -26 -48 -57 0
-18 -26 -53 -57 0
-18 -32 -38 -48 0
-18 -32 -38 -53 0
-18 -32 -38 -57 0
-18 -32 -48 -53 0
-18 -32 -48 -57 0
-18 -32 -53 -57 0
-18 -38 -48 -53 0
-18 -38 -48 -57 0
-18 -38 -53 -57 0
-18 -48 -53 -57 0
-26 -32 -38 -48 0
-26 -32 -38 -53 0
-26 -32 -38 -57 0
-26 -32 -48 -53 0
-26 -32 -48 -57 0
-26 -32 -53 -57 0
-26 -38 -48 -53 0
-26 -38 -48 -57 0
-26 -38 -53 -57 0
-26 -48 -53 -57 0
-32 -38 -48 -53 0
-32 -38 -48 -57 0
-32 -38 -53 -57 0
-32 -48 -53 -57 0
-38 -48 -53 -57 0
-4 -9 -18 -27 0
-4 -9 -18 -35 0
-4 -9 -18 -40 0
-4 -9 -18 -46 0
-4 -9 -18 -56 0
-4 -9 -18 -61 0
-4 -9 -27 -35 0
-4 -9 -27 -40 0
-4 -9 -27 -46 0
-4 -9 -27 -56 0
-4 -9 -27 -61 0
-4 -9 -35 -40 0
-4 -9 -35 -46 0
-4 -9 -35 -56 0
-4 -9 -35 -61 0
-4 -9 -40 -46 0
-4 -9 -40 -56 0
-4 -9 -40 -61 0
-4 -9 -46 -56 0
-4 -9 -46 -61 0
-4 -9 -56 -61 0
-4 -18 -27 -35 0
-4 -18 -27 -40 0
-4 -18 -27 -46 0
-4 -18 -27 -56 0
-4 -18 -27 -61 0
-4 -18 -35 -40 0
-4 -18 -35 -46 0
-4 -18 -35 -56 0
-4 -18 -35 -61 0
-4 -18 -40 -46 0
-4 -18 -40 -56 0
-4 -18 -40 -61 0
-4 -18 -46 -56 0
-4 -18 -46 -61 0
-4 -18 -56 -61 0
-4 -27 -35 -40 0
-4 -27 -35 -46 0
-4 -27 -35 -56 0
-4 -27 -35 -61 0
-4 -27 -40 -46 0
-4 -27 -40 -56 0
-4 -27 -40 -61 0
-4 -27 -46 -56 0
-4 -27 -46 -61 0
-4 -27 -56 -61 0
-4 -35 -40 -46 0
-4 -35 -40 -56 0
-4 -35 -40 -61 0
-4 -35 -46 -56 0
-4 -35 -46 -61 0
-4 -35 -56 -61 0
-4 -40 -46 -56 0
-4 -40 -46 -61 0
-4 -40 -56 -61 0
-4 -46 -56 -61 0
-9 -18 -27 -35 0
-9 -18 -27 -40 0
-9 -18 -27 -46 0
-9 -18 -27 -56 0
-9 -18 -27 -61 0
-9 -18 -35 -40 0
-9 -18 -35 -46 0
-9 -18 -35 -56 0
-9 -18 -35 -61 0
-9 -18 -40 -46 0
-9 -18 -40 -56 0
-9 -18 -40 -61 0
-9 -18 -46 -56 0
-9 -18 -46 -61 0
-9 -18 -56 -61 0
-9 -27 -35 -40 0
-9 -27 -35 -46 0
-9 -27 -35 -56 0
-9 -27 -35 -61 0
-9 -27 -40 -46 0
-9 -27 -40 -56 0
-9 -27 -40 -61 0
-9 -27 -46 -56 0
-9 -27 -46 -61 0
-9 -27 -56 -61 0
-9 -35 -40 -46 0
-9 -35 -40 -56 0
-9 -35 -40 -61 0
-9 -35 -46 -56 0
-9 -35 -46 -61 0
-9 -35 -56 -61 0
-9 -40 -46 -56 0
-9 -40 -46 -61 0
-9 -40 -56 -61 0
-9 -46 -56 -61 0
-18 -27 -35 -40 0
-18 -27 -35 -46 0
-18 -27 -35 -56 0
-18 -27 -35 -61 0
-18 -27 -40 -46 0
-18 -27 -40 -56 0
-18 -27 -40 -61 0
-18 -27 -46 -56 0
-18 -27 -46 -61 0
-18 -27 -56 -61 0
-18 -35 -40 -46 0
-18 -35 -40 -56 0
-18 -35 -40 -61 0
-18 -35 -46 -56 0
-18 -35 -46 -61 0
-18 -35 -56 -61 0
-18 -40 -46 -56 0
-18 -40 -46 -61 0
-18 -40 -56 -61 0
-18 -46 -56 -61 0
-27 -35 -40 -46 0
-27 -35 -40 -56 0
-27 -35 -40 -61 0
-27 -35 -46 -56 0
-27 -35 -46 -61 0
-27 -35 -56 -61 0
-27 -40 -46 -56 0
-27 -40 -46 -61 0
-27 -40 -56 -61 0
-27 -46 -56 -61 0
-35 -40 -46 -56 0
-35 -40 -46 -61 0
-35 -40 -56 -61 0
-35 -46 -56 -61 0
-40 -46 -56 -61 0
-6 -10 -20 -28 0
-6 -10 -20 -30 0
-6 -10 -20 -40 0
-6 -10 -20 -44 0
-6 -10 -20 -55 0
-6 -10 -20 -58 0
-6 -10 -28 -30 0
-6 -10 -28 -40 0
-6 -10 -28 -44 0
-6 -10 -28 -55 0
-6 -10 -28 -58 0
-6 -10 -30 -40 0
-6 -10 -30 -44 0
-6 -10 -30 -55 0
-6 -10 -30 -58 0
-6 -10 -40 -44 0
-6 -10 -40 -55 0
-6 -10 -40 -58 0
-6 -10 -44 -55 0
-6 -10 -44 -58 0
-6 -10 -55 -58 0
-6 -20 -28 -30 0
-6 -20 -28 -40 0
-6 -20 -28 -44 0
-6 -20 -28 -55 0
-6 -20 -28 -58 0
-6 -20 -30 -40 0
-6 -20 -30 -44 0
-6 -20 -30 -55 0
-6 -20 -30 -58 0
-6 -20 -40 -44 0
-6 -20 -40 -55 0
-6 -20 -40 -58 0
-6 -20 -44 -55 0
-6 -20 -44 -58 0
-6 -20 -55 -58 0
-6 -28 -30 -40 0
-6 -28 -30 -44 0
-6 -28 -30 -55 0
-6 -28 -30 -58 0
-6 -28 -40 -44 0
-6 -28 -40 -55 0
-6 -28 -40 -58 0
-6 -28 -44 -55 0
-6 -28 -44 -58 0
-6 -28 -55 -58 0
-6 -30 -40 -44 0
-6 -30 -40 -55 0
-6 -30 -40 -58 0
-6 -30 -44 -55 0
-6 -30 -44 -58 0
-6 -30 -55 -58 0
-6 -40 -44 -55 0
-6 -40 -44 -58 0
-6 -40 -55 -58 0
-6 -44 -55 -58 0
-10 -20 -28 -30 0
-10 -20 -28 -40 0
-10 -20 -28 -44 0
-10 -20 -28 -55 0
-10 -20 -28 -58 0
-10 -20 -30 -40 0
-10 -20 -30 -44 0
-10 -20 -30 -55 0
-10 -20 -30 -58 0
-10 -20 -40 -44 0
-10 -20 -40 -55 0
-10 -20 -40 -58 0
-10 -20 -44 -55 0
-10 -20 -44 -58 0
-10 -20 -55 -58 0
-10 -28 -30 -40 0
-10 -28 -30 -44 0
-10 -28 -30 -55 0
-10 -28 -30 -58 0
-10 -28 -40 -44 0
-10 -28 -40 -55 0
-10 -28 -40 -58 0
-10 -28 -44 -55 0
-10 -28 -44 -58 0
-10 -28 -55 -58 0
-10 -30 -40 -44 0
-10 -30 -40 -55 0
-10 -30 -40 -58 0
-10 -30 -44 -55 0
-10 -30 -44 -58 0
-10 -30 -55 -58 0
-10 -40 -44 -55 0
-10 -40 -44 -58 0
-10 -40 -55 -58 0
-10 -44 -55 -58 0
-20 -28 -30 -40 0
-20 -28 -30 -44 0
-20 -28 -30 -55 0
-20 -28 -30 -58 0
-20 -28 -40 -44 0
-20 -28 -40 -55 0
-20 -28 -40 -58 0
-20 -28 -44 -55 0
-20 -28 -44 -58 0
-20 -28 -55 -58 0
-20 -30 -40 -44 0
-20 -30 -40 -55 0
-20 -30 -40 -58 0
-20 -30 -44 -55 0
-20 -30 -44 -58 0
-20 -30 -55 -58 0
-20 -40 -44 -55 0
-20 -40 -44 -58 0
-20 -40 -55 -58 0
-20 -44 -55 -58 0
-28 -30 -40 -44 0
-28 -30 -40 -55 0
-28 -30 -40 -58 0
-28 -30 -44 -55 0
-28 -30 -44 -58 0
-28 -30 -55 -58 0
-28 -40 -44 -55 0
-28 -40 -44 -58 0
-28 -40 -55 -58 0
-28 -44 -55 -58 0
-30 -40 -44 -55 0
-30 -40 -44 -58 0
-30 -40 -55 -58 0
-30 -44 -55 -58 0
-40 -44 -55 -58 0
-6 -9 -21 -23 0
-6 -9 -21 -32 0
-6 -9 -21 -42 0
-6 -9 -21 -48 0
-6 -9 -21 -56 0
-6 -9 -21 -58 0
-6 -9 -23 -32 0
-6 -9 -23 -42 0
-6 -9 -23 -48 0
-6 -9 -23 -56 0
-6 -9 -23 -58 0
-6 -9 -32 -42 0
-6 -9 -32 -48 0
-6 -9 -32 -56 0
-6 -9 -32 -58 0
-6 -9 -42 -48 0
-6 -9 -42 -56 0
-6 -9 -42 -58 0
-6 -9 -48 -56 0
-6 -9 -48 -58 0
-6 -9 -56 -58 0
-6 -21 -23 -32 0
-6 -21 -23 -42 0
-6 -21 -23 -48 0
-6 -21 -23 -56 0
-6 -21 -23 -58 0
-6 -21 -32 -42 0
-6 -21 -32 -48 0
-6 -21 -32 -56 0
-6 -21 -32 -58 0
-6 -21 -42 -48 0
-6 -21 -42 -56 0
-6 -21 -42 -58 0
-6 -21 -48 -56 0
-6 -21 -48 -58 0
-6 -21 -56 -58 0
-6 -23 -32 -42 0
-6 -23 -32 -48 0
-6 -23 -32 -56 0
-6 -23 -32 -58 0
-6 -23 -42 -48 0
-6 -23 -42 -56 0
-6 -23 -42 -58 0
-6 -23 -48 -56 0
-6 -23 -48 -58 0
-6 -23 -56 -58 0
-6 -32 -42 -48 0
-6 -32 -42 -56 0
-6 -32 -42 -58 0
-6 -32 -48 -56 0
-6 -32 -48 -58 0
-6 -32 -56 -58 0
-6 -42 -48 -56 0
-6 -42 -48 -58 0
-6 -42 -56 -58 0
-6 -48 -56 -58 0
-9 -21 -23 -32 0
-9 -21 -23 -42 0
-9 -21 -23 -48 0
-9 -21 -23 -56 0
-9 -21 -23 -58 0
-9 -21 -32 -42 0
-9 -21 -32 -48 0
-9 -21 -32 -56 0
-9 -21 -32 -58 0
-9 -21 -42 -48 0
-9 -21 -42 -56 0
-9 -21 -42 -58 0
-9 -21 -48 -56 0
-9 -21 -48 -58 0
-9 -21 -56 -58 0
-9 -23 -32 -42 0
-9 -23 -32 -48 0
-9 -23 -32 -56 0
-9 -23 -32 -58 0
-9 -23 -42 -48 0
-9 -23 -42 -56 0
-9 -23 -42 -58 0
-9 -23 -48 -56 0
-9 -23 -48 -58 0
-9 -23 -56 -58 0
-9 -32 -42 -48 0
-9 -32 -42 -56 0
-9 -32 -42 -58 0
-9 -32 -48 -56 0
-9 -32 -48 -58 0
-9 -32 -56 -58 0
-9 -42 -48 -56 0
-9 -42 -48 -58 0
-9 -42 -56 -58 0
-9 -48 -56 -58 0
-21 -23 -32 -42 0
-21 -23 -32 -48 0
-21 -23 -32 -56 0
-21 -23 -32 -58 0
-21 -23 -42 -48 0
-21 -23 -42 -56 0
-21 -23 -42 -58 0
-21 -23 -48 -56 0
-21 -23 -48 -58 0
-21 -23 -56 -58 0
-21 -32 -42 -48 0
-21 -32 -42 -56 0
-21 -32 -42 -58 0
-21 -32 -48 -56 0
-21 -32 -48 -58 0
-21 -32 -56 -58 0
-21 -42 -48 -56 0
-21 -42 -48 -58 0
-21 -42 -56 -58 0
-21 -48 -56 -58 0
-23 -32 -42 -48 0
-23 -32 -42 -56 0
-23 -32 -42 -58 0
-23 -32 -48 -56 0
-23 -32 -48 -58 0
-23 -32 -56 -58 0
-23 -42 -48 -56 0
-23 -42 -48 -58 0
-23 -42 -56 -58 0
-23 -48 -56 -58 0
-32 -42 -48 -56 0
-32 -42 -48 -58 0
-32 -42 -56 -58 0
-32 -48 -56 -58 0
-42 -48 -56 -58 0
-3 -14 -17 -22 0
-3 -14 -17 -35 0
-3 -14 -17 -37 0
-3 -14 -17 -46 0
-3 -14 -17 -51 0
-3 -14 -17 -58 0
-3 -14 -22 -35 0
-3 -14 -22 -37 0
-3 -14 -22 -46 0
-3 -14 -22 -51 0
-3 -14 -22 -58 0
-3 -14 -35 -37 0
-3 -14 -35 -46 0
-3 -14 -35 -51 0
-3 -14 -35 -58 0
-3 -14 -37 -46 0
-3 -14 -37 -51 0
-3 -14 -37 -58 0
-3 -14 -46 -51 0
-3 -14 -46 -58 0
-3 -14 -51 -58 0
-3 -17 -22 -35 0
-3 -17 -22 -37 0
-3 -17 -22 -46 0
-3 -17 -22 -51 0
-3 -17 -22 -58 0
-3 -17 -35 -37 0
-3 -17 -35 -46 0
-3 -17 -35 -51 0
-3 -17 -35 -58 0
-3 -17 -37 -46 0
-3 -17 -37 -51 0
-3 -17 -37 -58 0
-3 -17 -46 -51 0
-3 -17 -46 -58 0
-3 -17 -51 -58 0
-3 -22 -35 -37 0
-3 -22 -35 -46 0
-3 -22 -35 -51 0
-3 -22 -35 -58 0
-3 -22 -37 -46 0
-3 -22 -37 -51 0
-3 -22 -37 -58 0
-3 -22 -46 -51 0
-3 -22 -46 -58 0
-3 -22 -51 -58 0
-3 -35 -37 -46 0
-3 -35 -37 -51 0
-3 -35 -37 -58 0
-3 -35 -46 -51 0
-3 -35 -46 -58 0
-3 -35 -51 -58 0
-3 -37 -46 -51 0
-3 -37 -46 -58 0
-3 -37 -51 -58 0
-3 -46 -51 -58 0
-14 -17 -22 -35 0
-14 -17 -22 -37 0
-14 -17 -22 -46 0
-14 -17 -22 -51 0
-14 -17 -22 -58 0
-14 -17 -35 -37 0
-14 -17 -35 -46 0
-14 -17 -35 -51 0
-14 -17 -35 -58 0
-14 -17 -37 -46 0
-14 -17 -37 -51 0
-14 -17 -37 -58 0
-14 -17 -46 -51 0
-14 -17 -46 -58 0
-14 -17 -51 -58 0
-14 -22 -35 -37 0
-14 -22 -35 -46 0
-14 -22 -35 -51 0
-14 -22 -35 -58 0
-14 -22 -37 -46 0
-14 -22 -37 -51 0
-14 -22 -37 -58 0
-14 -22 -46 -51 0
-14 -22 -46 -58 0
-14 -22 -51 -58 0
-14 -35 -37 -46 0
-14 -35 -37 -51 0
-14 -35 -37 -58 0
-14 -35 -46 -51 0
-14 -35 -46 -58 0
-14 -35 -51 -58 0
-14 -37 -46 -51 0
-14 -37 -46 -58 0
-14 -37 -51 -58 0
-14 -46 -51 -58 0
-17 -22 -35 -37 0
-17 -22 -35 -46 0
-17 -22 -35 -51 0
-17 -22 -35 -58 0
-17 -22 -37 -46 0
-17 -22 -37 -51 0
-17 -22 -37 -58 0
-17 -22 -46 -51 0
-17 -22 -46 -58 0
-17 -22 -51 -58 0
-17 -35 -37 -46 0
-17 -35 -37 -51 0
-17 -35 -37 -58 0
-17 -35 -46 -51 0
-17 -35 -46 -58 0
-17 -35 -51 -58 0
-17 -37 -46 -51 0
-17 -37 -46 -58 0
-17 -37 -51 -58 0
-17 -46 -51 -58 0
-22 -35 -37 -46 0
-22 -35 -37 -51 0
-22 -35 -37 -58 0
-22 -35 -46 -51 0
-22 -35 -46 -58 0
-22 -35 -51 -58 0
-22 -37 -46 -51 0
-22 -37 -46 -58 0
-22 -37 -51 -58 0
-22 -46 -51 -58 0
-35 -37 -46 -51 0
-35 -37 -46 -58 0
-35 -37 -51 -58 0
-35 -46 -51 -58 0
-37 -46 -51 -58 0
-6 -8 -16 -23 0
-6 -8 -16 -29 0
-6 -8 -16 -39 0
-6 -8 -16 -46 0
-6 -8 -16 -51 0
-6 -8 -16 -63 0
-6 -8 -23 -29 0
-6 -8 -23 -39 0
-6 -8 -23 -46 0
-6 -8 -23 -51 0
-6 -8 -23 -63 0
-6 -8 -29 -39 0
-6 -8 -29 -46 0
-6 -8 -29 -51 0
-6 -8 -29 -63 0
-6 -8 -39 -46 0
-6 -8 -39 -51 0
-6 -8 -39 -63 0
-6 -8 -46 -51 0
-6 -8 -46 -63 0
-6 -8 -51 -63 0
-6 -16 -23 -29 0
-6 -16 -23 -39 0
-6 -16 -23 -46 0
-6 -16 -23 -51 0
-6 -16 -23 -63 0
-6 -16 -29 -39 0
-6 -16 -29 -46 0
-6 -16 -29 -51 0
-6 -16 -29 -63 0
-6 -16 -39 -46 0
-6 -16 -39 -51 0
-6 -16 -39 -63 0
-6 -16 -46 -51 0
-6 -16 -46 -63 0
-6 -16 -51 -63 0
-6 -23 -29 -39 0
-6 -23 -29 -46 0
-6 -23 -29 -51 0
-6 -23 -29 -63 0
-6 -23 -39 -46 0
-6 -23 -39 -51 0
-6 -23 -39 -63 0
-6 -23 -46 -51 0
-6 -23 -46 -63 0
-6 -23 -51 -63 0
-6 -29 -39 -46 0
-6 -29 -39 -51 0
-6 -29 -39 -63 0
-6 -29 -46 -51 0
-6 -29 -46 -63 0
-6 -29 -51 -63 0
-6 -39 -46 -51 0
-6 -39 -46 -63 0
-6 -39 -51 -63 0
-6 -46 -51 -63 0
-8 -16 -23 -29 0
-8 -16 -23 -39 0
-8 -16 -23 -46 0
-8 -16 -23 -51 0
-8 -16 -23 -63 0
-8 -16 -29 -39 0
-8 -16 -29 -46 0
-8 -16 -29 -51 0
-8 -16 -29 -63 0
-8 -16 -39 -46 0
-8 -16 -39 -51 0
-8 -16 -39 -63 0
-8 -16 -46 -51 0
-8 -16 -46 -63 0
-8 -16 -51 -63 0
-8 -23 -29 -39 0
-8 -23 -29 -46 0
-8 -23 -29 -51 0
-8 -23 -29 -63 0
-8 -23 -39 -46 0
-8 -23 -39 -51 0
-8 -23 -39 -63 0
-8 -23 -46 -51 0
-8 -23 -46 -63 0
-8 -23 -51 -63 0
-8 -29 -39 -46 0
-8 -29 -39 -51 0
-8 -29 -39 -63 0
-8 -29 -46 -51 0
-8 -29 -46 -63 0
-8 -29 -51 -63 0
-8 -39 -46 -51 0
-8 -39 -46 -63 0
-8 -39 -51 -63 0
-8 -46 -51 -63 0
-16 -23 -29 -39 0
-16 -23 -29 -46 0
-16 -23 -29 -51 0
-16 -23 -29 -63 0
-16 -23 -39 -46 0
-16 -23 -39 -51 0
-16 -23 -39 -63 0
-16 -23 -46 -51 0
-16 -23 -46 -63 0
-16 -23 -51 -63 0
-16 -29 -39 -46 0
-16 -29 -39 -51 0
-16 -29 -39 -63 0
-16 -29 -46 -51 0
-16 -29 -46 -63 0
-16 -29 -51 -63 0
-16 -39 -46 -51 0
-16 -39 -46 -63 0
-16 -39 -51 -63 0
-16 -46 -51 -63 0
-23 -29 -39 -46 0
-23 -29 -39 -51 0
-23 -29 -39 -63 0
-23 -29 -46 -51 0
-23 -29 -46 -63 0
-23 -29 -51 -63 0
-23 -39 -46 -51 0
-23 -39 -46 -63 0
-23 -39 -51 -63 0
-23 -46 -51 -63 0
-29 -39 -46 -51 0
-29 -39 -46 -63 0
-29 -39 -51 -63 0
-29 -46 -51 -63 0
-39 -46 -51 -63 0
-5 -13 -21 -23 0
-5 -13 -21 -34 0
-5 -13 -21 -39 0
-5 -13 -21 -47 0
-5 -13 -21 -53 0
-5 -13 -21 -58 0
-5 -13 -23 -34 0
-5 -13 -23 -39 0
-5 -13 -23 -47 0
-5 -13 -23 -53 0
-5 -13 -23 -58 0
-5 -13 -34 -39 0
-5 -13 -34 -47 0
-5 -13 -34 -53 0
-5 -13 -34 -58 0
-5 -13 -39 -47 0
-5 -13 -39 -53 0
-5 -13 -39 -58 0
-5 -13 -47 -53 0
-5 -13 -47 -58 0
-5 -13 -53 -58 0
-5 -21 -23 -34 0
-5 -21 -23 -39 0
-5 -21 -23 -47 0
-5 -21 -23 -53 0
-5 -21 -23 -58 0
-5 -21 -34 -39 0
-5 -21 -34 -47 0
-5 -21 -34 -53 0
-5 -21 -34 -58 0
-5 -21 -39 -47 0
-5 -21 -39 -53 0
-5 -21 -39 -58 0
-5 -21 -47 -53 0
-5 -21 -47 -58 0
-5 -21 -53 -58 0
-5 -23 -34 -39 0
-5 -23 -34 -47 0
-5 -23 -34 -53 0
-5 -23 -34 -58 0
-5 -23 -39 -47 0
-5 -23 -39 -53 0
-5 -23 -39 -58 0
-5 -23 -47 -53 0
-5 -23 -47 -58 0
-5 -23 -53 -58 0
-5 -34 -39 -47 0
-5 -34 -39 -53 0
-5 -34 -39 -58 0
-5 -34 -47 -53 0
-5 -34 -47 -58 0
-5 -34 -53 -58 0
-5 -39 -47 -53 0
-5 -39 -47 -58 0
-5 -39 -53 -58 0
-5 -47 -53 -58 0
-13 -21 -23 -34 0
-13 -21 -23 -39 0
-13 -21 -23 -47 0
-13 -21 -23 -53 0
-13 -21 -23 -58 0
-13 -21 -34 -39 0
-13 -21 -34 -47 0
-13 -21 -34 -53 0
-13 -21 -34 -58 0
-13 -21 -39 -47 0
-13 -21 -39 -53 0
-13 -21 -39 -58 0
-13 -21 -47 -53 0
-13 -21 -47 -58 0
-13 -21 -53 -58 0
-13 -23 -34 -39 0
-13 -23 -34 -47 0
-13 -23 -34 -53 0
-13 -23 -34 -58 0
-13 -23 -39 -47 0
-13 -23 -39 -53 0
-13 -23 -39 -58 0
-13 -23 -47 -53 0
-13 -23 -47 -58 0
-13 -23 -53 -58 0
-13 -34 -39 -47 0
-13 -34 -39 -53 0
-13 -34 -39 -58 0
-13 -34 -47 -53 0
-13 -34 -47 -58 0
-13 -34 -53 -58 0
-13 -39 -47 -53 0
-13 -39 -47 -58 0
-13 -39 -53 -58 0
-13 -47 -53 -58 0
-21 -23 -34 -39 0
-21 -23 -34 -47 0
-21 -23 -34 -53 0
-21 -23 -34 -58 0
-21 -23 -39 -47 0
-21 -23 -39 -53 0
-21 -23 -39 -58 0
-21 -23 -47 -53 0
-21 -23 -47 -58 0
-21 -23 -53 -58 0
-21 -34 -39 -47 0
-21 -34 -39 -53 0
-21 -34 -39 -58 0
-21 -34 -47 -53 0
-21 -34 -47 -58 0
-21 -34 -53 -58 0
-21 -39 -47 -53 0
-21 -39 -47 -58 0
-21 -39 -53 -58 0
-21 -47 -53 -58 0
-23 -34 -39 -47 0
-23 -34 -39 -53 0
-23 -34 -39 -58 0
-23 -34 -47 -53 0
-23 -34 -47 -58 0
-23 -34 -53 -58 0
-23 -39 -47 -53 0
-23 -39 -47 -58 0
-23 -39 -53 -58 0
-23 -47 -53 -58 0
-34 -39 -47 -53 0
-34 -39 -47 -58 0
-34 -39 -53 -58 0
-34 -47 -53 -58 0
-39 -47 -53 -58 0
-4 -8 -18 -25 0
-4 -8 -18 -30 0
-4 -8 -18 -38 0
-4 -8 -18 -43 0
-4 -8 -18 -52 0
-4 -8 -18 -62 0
-4 -8 -25 -30 0
-4 -8 -25 -38 0
-4 -8 -25 -43 0
-4 -8 -25 -52 0
-4 -8 -25 -62 0
-4 -8 -30 -38 0
-4 -8 -30 -43 0
-4 -8 -30 -52 0
-4 -8 -30 -62 0
-4 -8 -38 -43 0
-4 -8 -38 -52 0
-4 -8 -38 -62 0
-4 -8 -43 -52 0
-4 -8 -43 -62 0
-4 -8 -52 -62 0
-4 -18 -25 -30 0
-4 -18 -25 -38 0
-4 -18 -25 -43 0
-4 -18 -25 -52 0
-4 -18 -25 -62 0
-4 -18 -30 -38 0
-4 -18 -30 -43 0
-4 -18 -30 -52 0
-4 -18 -30 -62 0
-4 -18 -38 -43 0
-4 -18 -38 -52 0
-4 -18 -38 -62 0
-4 -18 -43 -52 0
-4 -18 -43 -62 0
-4 -18 -52 -62 0
-4 -25 -30 -38 0
-4 -25 -30 -43 0
-4 -25 -30 -52 0
-4 -25 -30 -62 0
-4 -25 -38 -43 0
-4 -25 -38 -52 0
-4 -25 -38 -62 0
-4 -25 -43 -52 0
-4 -25 -43 -62 0
-4 -25 -52 -62 0
-4 -30 -38 -43 0
-4 -30 -38 -52 0
-4 -30 -38 -62 0
-4 -30 -43 -52 0
-4 -30 -43 -62 0
-4 -30 -52 -62 0
-4 -38 -43 -52 0
-4 -38 -43 -62 0
-4 -38 -52 -62 0
-4 -43 -52 -62 0
-8 -18 -25 -30 0
-8 -18 -25 -38 0
-8 -18 -25 -43 0
-8 -18 -25 -52 0
-8 -18 -25 -62 0
-8 -18 -30 -38 0
-8 -18 -30 -43 0
-8 -18 -30 -52 0
-8 -18 -30 -62 0
-8 -18 -38 -43 0
-8 -18 -38 -52 0
-8 -18 -38 -62 0
-8 -18 -43 -52 0
-8 -18 -43 -62 0
-8 -18 -52 -62 0
-8 -25 -30 -38 0
-8 -25 -30 -43 0
-8 -25 -30 -52 0
-8 -25 -30 -62 0
-8 -25 -38 -43 0
-8 -25 -38 -52 0
-8 -25 -38 -62 0
-8 -25 -43 -52 0
-8 -25 -43 -62 0
-8 -25 -52 -62 0
-8 -30 -38 -43 0
-8 -30 -38 -52 0
-8 -30 -38 -62 0
-8 -30 -43 -52 0
-8 -30 -43 -62 0
-8 -30 -52 -62 0
-8 -38 -43 -52 0
-8 -38 -43 -62 0
-8 -38 -52 -62 0
-8 -43 -52 -62 0
-18 -25 -30 -38 0
-18 -25 -30 -43 0
-18 -25 -30 -52 0
-18 -25 -30 -62 0
-18 -25 -38 -43 0
-18 -25 -38 -52 0
-18 -25 -38 -62 0
-18 -25 -43 -52 0
-18 -25 -43 -62 0
-18 -25 -52 -62 0
-18 -30 -38 -43 0
-18 -30 -38 -52 0
-18 -30 -38 -62 0
-18 -30 -43 -52 0
-18 -30 -43 -62 0
-18 -30 -52 -62 0
-18 -38 -43 -52 0
-18 -38 -43 -62 0
-18 -38 -52 -62 0
-18 -43 -52 -62 0
-25 -30 -38 -43 0
-25 -30 -38 -52 0
-25 -30 -38 -62 0
-25 -30 -43 -52 0
-25 -30 -43 -62 0
-25 -30 -52 -62 0
-25 -38 -43 -52 0
-25 -38 -43 -62 0
-25 -38 -52 -62 0
-25 -43 -52 -62 0
-30 -38 -43 -52 0
-30 -38 -43 -62 0
-30 -38 -52 -62 0
-30 -43 -52 -62 0
-38 -43 -52 -62 0
-7 -11 -20 -24 0
-7 -11 -20 -35 0
-7 -11 -20 -41 0
-7 -11 -20 -44 0
-7 -11 -20 -54 0
-7 -11 -20 -59 0
-7 -11 -24 -35 0
-7 -11 -24 -41 0
-7 -11 -24 -44 0
-7 -11 -24 -54 0
-7 -11 -24 -59 0
-7 -11 -35 -41 0
-7 -11 -35 -44 0
-7 -11 -35 -54 0
-7 -11 -35 -59 0
-7 -11 -41 -44 0
-7 -11 -41 -54 0
-7 -11 -41 -59 0
-7 -11 -44 -54 0
-7 -11 -44 -59 0
-7 -11 -54 -59 0
-7 -20 -24 -35 0
-7 -20 -24 -41 0
-7 -20 -24 -44 0
-7 -20 -24 -54 0
-7 -20 -24 -59 0
-7 -20 -35 -41 0
-7 -20 -35 -44 0
-7 -20 -35 -54 0
-7 -20 -35 -59 0
-7 -20 -41 -44 0
-7 -20 -41 -54 0
-7 -20 -41 -59 0
-7 -20 -44 -54 0
-7 -20 -44 -59 0
-7 -20 -54 -59 0
-7 -24 -35 -41 0
-7 -24 -35 -44 0
-7 -24 -35 -54 0
-7 -24 -35 -59 0
-7 -24 -41 -44 0
-7 -24 -41 -54 0
-7 -24 -41 -59 0
-7 -24 -44 -54 0
-7 -24 -44 -59 0
-7 -24 -54 -59 0
-7 -35 -41 -44 0
-7 -35 -41 -54 0
-7 -35 -41 -59 0
-7 -35 -44 -54 0
-7 -35 -44 -59 0
-7 -35 -54 -59 0
-7 -41 -44 -54 0
-7 -41 -44 -59 0
-7 -41 -54 -59 0
-7 -44 -54 -59 0
-11 -20 -24 -35 0
-11 -20 -24 -41 0
-11 -20 -24 -44 0
-11 -20 -24 -54 0
-11 -20 -24 -59 0
-11 -20 -35 -41 0
-11 -20 -35 -44 0
-11 -20 -35 -54 0
-11 -20 -35 -59 0
-11 -20 -41 -44 0
-11 -20 -41 -54 0
-11 -20 -41 -59 0
-11 -20 -44 -54 0
-11 -20 -44 -59 0
-11 -20 -54 -59 0
-11 -24 -35 -41 0
-11 -24 -35 -44 0
-11 -24 -35 -54 0
-11 -24 -35 -59 0
-11 -24 -41 -44 0
-11 -24 -41 -54 0
-11 -24 -41 -59 0
-11 -24 -44 -54 0
-11 -24 -44 -59 0
-11 -24 -54 -59 0
-11 -35 -41 -44 0
-11 -35 -41 -54 0
-11 -35 -41 -59 0
-11 -35 -44 -54 0
-11 -35 -44 -59 0
-11 -35 -54 -59 0
-11 -41 -44 -54 0
-11 -41 -44 -59 0
-11 -41 -54 -59 0
-11 -44 -54 -59 0
-20 -24 -35 -41 0
-20 -24 -35 -44 0
-20 -24 -35 -54 0
-20 -24 -35 -59 0
-20 -24 -41 -44 0
-20 -24 -41 -54 0
-20 -24 -41 -59 0
-20 -24 -44 -54 0
-20 -24 -44 -59 0
-20 -24 -54 -59 0
-20 -35 -41 -44 0
-20 -35 -41 -54 0
-20 -35 -41 -59 0
-20 -35 -44 -54 0
-20 -35 -44 -59 0
-20 -35 -54 -59 0
-20 -41 -44 -54 0
-20 -41 -44 -59 0
-20 -41 -54 -59 0
-20 -44 -54 -59 0
-24 -35 -41 -44 0
-24 -35 -41 -54 0
-24 -35 -41 -59 0
-24 -35 -44 -54 0
-24 -35 -44 -59 0
-24 -35 -54 -59 0
-24 -41 -44 -54 0
-24 -41 -44 -59 0
-24 -41 -54 -59 0
-24 -44 -54 -59 0
-35 -41 -44 -54 0
-35 -41 -44 -59 0
-35 -41 -54 -59 0
-35 -44 -54 -59 0
-41 -44 -54 -59 0
-7 -11 -17 -28 0
-7 -11 -17 -34 0
-7 -11 -17 -41 0
-7 -11 -17 -44 0
-7 -11 -17 -56 0
-7 -11 -17 -61 0
-7 -11 -28 -34 0
-7 -11 -28 -41 0
-7 -11 -28 -44 0
-7 -11 -28 -56 0
-7 -11 -28 -61 0
-7 -11 -34 -41 0
-7 -11 -34 -44 0
-7 -11 -34 -56 0
-7 -11 -34 -61 0
-7 -11 -41 -44 0
-7 -11 -41 -56 0
-7 -11 -41 -61 0
-7 -11 -44 -56 0
-7 -11 -44 -61 0
-7 -11 -56 -61 0
-7 -17 -28 -34 0
-7 -17 -28 -41 0
-7 -17 -28 -44 0
-7 -17 -28 -56 0
-7 -17 -28 -61 0
-7 -17 -34 -41 0
-7 -17 -34 -44 0
-7 -17 -34 -56 0
-7 -17 -34 -61 0
-7 -17 -41 -44 0
-7 -17 -41 -56 0
-7 -17 -41 -61 0
-7 -17 -44 -56 0
-7 -17 -44 -61 0
-7 -17 -56 -61 0
-7 -28 -34 -41 0
-7 -28 -34 -44 0
-7 -28 -34 -56 0
-7 -28 -34 -61 0
-7 -28 -41 -44 0
-7 -28 -41 -56 0
-7 -28 -41 -61 0
-7 -28 -44 -56 0
-7 -28 -44 -61 0
-7 -28 -56 -61 0
-7 -34 -41 -44 0
-7 -34 -41 -56 0
-7 -34 -41 -61 0
-7 -34 -44 -56 0
-7 -34 -44 -61 0
-7 -34 -56 -61 0
-7 -41 -44 -56 0
-7 -41 -44 -61 0
-7 -41 -56 -61 0
-7 -44 -56 -61 0
-11 -17 -28 -34 0
-11 -17 -28 -41 0
-11 -17 -28 -44 0
-11 -17 -28 -56 0
-11 -17 -28 -61 0
-11 -17 -34 -41 0
-11 -17 -34 -44 0
-11 -17 -34 -56 0
-11 -17 -34 -61 0
-11 -17 -41 -44 0
-11 -17 -41 -56 0
-11 -17 -41 -61 0
-11 -17 -44 -56 0
-11 -17 -44 -61 0
-11 -17 -56 -61 0
-11 -28 -34 -41 0
-11 -28 -34 -44 0
-11 -28 -34 -56 0
-11 -28 -34 -61 0
-11 -28 -41 -44 0
-11 -28 -41 -56 0
-11 -28 -41 -61 0
-11 -28 -44 -56 0
-11 -28 -44 -61 0
-11 -28 -56 -61 0
-11 -34 -41 -44 0
-11 -34 -41 -56 0
-11 -34 -41 -61 0
-11 -34 -44 -56 0
-11 -34 -44 -61 0
-11 -34 -56 -61 0
-11 -41 -44 -56 0
-11 -41 -44 -61 0
-11 -41 -56 -61 0
-11 -44 -56 -61 0
-17 -28 -34 -41 0
-17 -28 -34 -44 0
-17 -28 -34 -56 0
-17 -28 -34 -61 0
-17 -28 -41 -44 0
-17 -28 -41 -56 0
-17 -28 -41 -61 0
-17 -28 -44 -56 0
-17 -28 -44 -61 0
-17 -28 -56 -61 0
-17 -34 -41 -44 0
-17 -34 -41 -56 0
-17 -34 -41 -61 0
-17 -34 -44 -56 0
-17 -34 -44 -61 0
-17 -34 -56 -61 0
-17 -41 -44 -56 0
-17 -41 -44 -61 0
-17 -41 -56 -61 0
-17 -44 -56 -61 0
-28 -34 -41 -44 0
-28 -34 -41 -56 0
-28 -34 -41 -61 0
-28 -34 -44 -56 0
-28 -34 -44 -61 0
-28 -34 -56 -61 0
-28 -41 -44 -56 0
-28 -41 -44 -61 0
-28 -41 -56 -61 0
-28 -44 -56 -61 0
-34 -41 -44 -56 0
-34 -41 -44 -61 0
-34 -41 -56 -61 0
-34 -44 -56 -61 0
-41 -44 -56 -61 0
-6 -11 -19 -27 0
-6 -11 -19 -33 0
-6 -11 -19 -36 0
-6 -11 -19 -43 0
-6 -11 -19 -50 0
-6 -11 -19 -57 0
-6 -11 -27 -33 0
-6 -11 -27 -36 0
-6 -11 -27 -43 0
-6 -11 -27 -50 0
-6 -11 -27 -57 0
-6 -11 -33 -36 0
-6 -11 -33 -43 0
-6 -11 -33 -50 0
-6 -11 -33 -57 0
-6 -11 -36 -43 0
-6 -11 -36 -50 0
-6 -11 -36 -57 0
-6 -11 -43 -50 0
-6 -11 -43 -57 0
-6 -11 -50 -57 0
-6 -19 -27 -33 0
-6 -19 -27 -36 0
-6 -19 -27 -43 0
-6 -19 -27 -50 0
-6 -19 -27 -57 0
-6 -19 -33 -36 0
-6 -19 -33 -43 0
-6 -19 -33 -50 0
-6 -19 -33 -57 0
-6 -19 -36 -43 0
-6 -19 -36 -50 0
-6 -19 -36 -57 0
-6 -19 -43 -50 0
-6 -19 -43 -57 0
-6 -19 -50 -57 0
-6 -27 -33 -36 0
-6 -27 -33 -43 0
-6 -27 -33 -50 0
-6 -27 -33 -57 0
-6 -27 -36 -43 0
-6 -27 -36 -50 0
-6 -27 -36 -57 0
-6 -27 -43 -50 0
-6 -27 -43 -57 0
-6 -27 -50 -57 0
-6 -33 -36 -43 0
-6 -33 -36 -50 0
-6 -33 -36 -57 0
-6 -33 -43 -50 0
-6 -33 -43 -57 0
-6 -33 -50 -57 0
-6 -36 -43 -50 0
-6 -36 -43 -57 0
-6 -36 -50 -57 0
-6 -43 -50 -57 0
-11 -19 -27 -33 0
-11 -19 -27 -36 0
-11 -19 -27 -43 0
-11 -19 -27 -50 0
-11 -19 -27 -57 0
-11 -19 -33 -36 0
-11 -19 -33 -43 0
-11 -19 -33 -50 0
-11 -19 -33 -57 0
-11 -19 -36 -43 0
-11 -19 -36 -50 0
-11 -19 -36 -57 0
-11 -19 -43 -50 0
-11 -19 -43 -57 0
-11 -19 -50 -57 0
-11 -27 -33 -36 0
-11 -27 -33 -43 0
-11 -27 -33 -50 0
-11 -27 -33 -57 0
-11 -27 -36 -43 0
-11 -27 -36 -50 0
-11 -27 -36 -57 0
-11 -27 -43 -50 0
-11 -27 -43 -57 0
-11 -27 -50 -57 0
-11 -33 -36 -43 0
-11 -33 -36 -50 0
-11 -33 -36 -57 0
-11 -33 -43 -50 0
-11 -33 -43 -57 0
-11 -33 -50 -57 0
-11 -36 -43 -50 0
-11 -36 -43 -57 0
-11 -36 -50 -57 0
-11 -43 -50 -57 0
-19 -27 -33 -36 0
-19 -27 -33 -43 0
-19 -27 -33 -50 0
-19 -27 -33 -57 0
-19 -27 -36 -43 0
-19 -27 -36 -50 0
-19 -27 -36 -57 0
-19 -27 -43 -50 0
-19 -27 -43 -57 0
-19 -27 -50 -57 0
-19 -33 -36 -43 0
-19 -33 -36 -50 0
-19 -33 -36 -57 0
-19 -33 -43 -50 0
-19 -33 -43 -57 0
-19 -33 -50 -57 0
-19 -36 -43 -50 0
-19 -36 -43 -57 0
-19 -36 -50 -57 0
-19 -43 -50 -57 0
-27 -33 -36 -43 0
-27 -33 -36 -50 0
-27 -33 -36 -57 0
-27 -33 -43 -50 0
-27 -33 -43 -57 0
-27 -33 -50 -57 0
-27 -36 -43 -50 0
-27 -36 -43 -57 0
-27 -36 -50 -57 0
-27 -43 -50 -57 0
-33 -36 -43 -50 0
-33 -36 -43 -57 0
-33 -36 -50 -57 0
-33 -43 -50 -57 0
-36 -43 -50 -57 0
-7 -12 -15 -23 0
-7 -12 -15 -35 0
-7 -12 -15 -37 0
-7 -12 -15 -44 0
-7 -12 -15 -52 0
-7 -12 -15 -57 0
-7 -12 -23 -35 0
-7 -12 -23 -37 0
-7 -12 -23 -44 0
-7 -12 -23 -52 0
-7 -12 -23 -57 0
-7 -12 -35 -37 0
-7 -12 -35 -44 0
-7 -12 -35 -52 0
-7 -12 -35 -57 0
-7 -12 -37 -44 0
-7 -12 -37 -52 0
-7 -12 -37 -57 0
-7 -12 -44 -52 0
-7 -12 -44 -57 0
-7 -12 -52 -57 0
-7 -15 -23 -35 0
-7 -15 -23 -37 0
-7 -15 -23 -44 0
-7 -15 -23 -52 0
-7 -15 -23 -57 0
-7 -15 -35 -37 0
-7 -15 -35 -44 0
-7 -15 -35 -52 0
-7 -15 -35 -57 0
-7 -15 -37 -44 0
-7 -15 -37 -52 0
-7 -15 -37 -57 0
-7 -15 -44 -52 0
-7 -15 -44 -57 0
-7 -15 -52 -57 0
-7 -23 -35 -37 0
-7 -23 -35 -44 0
-7 -23 -35 -52 0
-7 -23 -35 -57 0
-7 -23 -37 -44 0
-7 -23 -37 -52 0
-7 -23 -37 -57 0
-7 -23 -44 -52 0
-7 -23 -44 -57 0
-7 -23 -52 -57 0
-7 -35 -37 -44 0
-7 -35 -37 -52 0
-7 -35 -37 -57 0
-7 -35 -44 -52 0
-7 -35 -44 -57 0
-7 -35 -52 -57 0
-7 -37 -44 -52 0
-7 -37 -44 -57 0
-7 -37 -52 -57 0
-7 -44 -52 -57 0
-12 -15 -23 -35 0
-12 -15 -23 -37 0
-12 -15 -23 -44 0
-12 -15 -23 -52 0
-12 -15 -23 -57 0
-12 -15 -35 -37 0
-12 -15 -35 -44 0
-12 -15 -35 -52 0
-12 -15 -35 -57 0
-12 -15 -37 -44 0
-12 -15 -37 -52 0
-12 -15 -37 -57 0
-12 -15 -44 -52 0
-12 -15 -44 -57 0
-12 -15 -52 -57 0
-12 -23 -35 -37 0
-12 -23 -35 -44 0
-12 -23 -35 -52 0
-12 -23 -35 -57 0
-12 -23 -37 -44 0
-12 -23 -37 -52 0
-12 -23 -37 -57 0
-12 -23 -44 -52 0
-12 -23 -44 -57 0
-12 -23 -52 -57 0
-12 -35 -37 -44 0
-12 -35 -37 -52 0
-12 -35 -37 -57 0
-12 -35 -44 -52 0
-12 -35 -44 -57 0
-12 -35 -52 -57 0
-12 -37 -44 -52 0
-12 -37 -44 -57 0
-12 -37 -52 -57 0
-12 -44 -52 -57 0
-15 -23 -35 -37 0
-15 -23 -35 -44 0
-15 -23 -35 -52 0
-15 -23 -35 -57 0
-15 -23 -37 -44 0
-15 -23 -37 -52 0
-15 -23 -37 -57 0
-15 -23 -44 -52 0
-15 -23 -44 -57 0
-15 -23 -52 -57 0
-15 -35 -37 -44 0
-15 -35 -37 -52 0
-15 -35 -37 -57 0
-15 -35 -44 -52 0
-15 -35 -44 -57 0
-15 -35 -52 -57 0
-15 -37 -44 -52 0
-15 -37 -44 -57 0
-15 -37 -52 -57 0
-15 -44 -52 -57 0
-23 -35 -37 -44 0
-23 -35 -37 -52 0
-23 -35 -37 -57 0
-23 -35 -44 -52 0
-23 -35 -44 -57 0
-23 -35 -52 -57 0
-23 -37 -44 -52 0
-23 -37 -44 -57 0
-23 -37 -52 -57 0
-23 -44 -52 -57 0
-35 -37 -44 -52 0
-35 -37 -44 -57 0
-35 -37 -52 -57 0
-35 -44 -52 -57 0
-37 -44 -52 -57 0
-3 -8 -17 -25 0
-3 -8 -17 -34 0
-3 -8 -17 -39 0
-3 -8 -17 -48 0
-3 -8 -17 -54 0
-3 -8 -17 -61 0
-3 -8 -25 -34 0
-3 -8 -25 -39 0
-3 -8 -25 -48 0
-3 -8 -25 -54 0
-3 -8 -25 -61 0
-3 -8 -34 -39 0
-3 -8 -34 -48 0
-3 -8 -34 -54 0
-3 -8 -34 -61 0
-3 -8 -39 -48 0
-3 -8 -39 -54 0
-3 -8 -39 -61 0
-3 -8 -48 -54 0
-3 -8 -48 -61 0
-3 -8 -54 -61 0
-3 -17 -25 -34 0
-3 -17 -25 -39 0
-3 -17 -25 -48 0
-3 -17 -25 -54 0
-3 -17 -25 -61 0
-3 -17 -34 -39 0
-3 -17 -34 -48 0
-3 -17 -34 -54 0
-3 -17 -34 -61 0
-3 -17 -39 -48 0
-3 -17 -39 -54 0
-3 -17 -39 -61 0
-3 -17 -48 -54 0
-3 -17 -48 -61 0
-3 -17 -54 -61 0
-3 -25 -34 -39 0
-3 -25 -34 -48 0
-3 -25 -34 -54 0
-3 -25 -34 -61 0
-3 -25 -39 -48 0
-3 -25 -39 -54 0
-3 -25 -39 -61 0
-3 -25 -48 -54 0
-3 -25 -48 -61 0
-3 -25 -54 -61 0
-3 -34 -39 -48 0
-3 -34 -39 -54 0
-3 -34 -39 -61 0
-3 -34 -48 -54 0
-3 -34 -48 -61 0
-3 -34 -54 -61 0
-3 -39 -48 -54 0
-3 -39 -48 -61 0
-3 -39 -54 -61 0
-3 -48 -54 -61 0
-8 -17 -25 -34 0
-8 -17 -25 -39 0
-8 -17 -25 -48 0
-8 -17 -25 -54 0
-8 -17 -25 -61 0
-8 -17 -34 -39 0
-8 -17 -34 -48 0
-8 -17 -34 -54 0
-8 -17 -34 -61 0
-8 -17 -39 -48 0
-8 -17 -39 -54 0
-8 -17 -39 -61 0
-8 -17 -48 -54 0
-8 -17 -48 -61 0
-8 -17 -54 -61 0
-8 -25 -34 -39 0
-8 -25 -34 -48 0
-8 -25 -34 -54 0
-8 -25 -34 -61 0
-8 -25 -39 -48 0
-8 -25 -39 -54 0
-8 -25 -39 -61 0
-8 -25 -48 -54 0
-8 -25 -48 -61 0
-8 -25 -54 -61 0
-8 -34 -39 -48 0
-8 -34 -39 -54 0
-8 -34 -39 -61 0
-8 -34 -48 -54 0
-8 -34 -48 -61 0
-8 -34 -54 -61 0
-8 -39 -48 -54 0
-8 -39 -48 -61 0
-8 -39 -54 -61 0
-8 -48 -54 -61 0
-17 -25 -34 -39 0
-17 -25 -34 -48 0
-17 -25 -34 -54 0
-17 -25 -34 -61 0
-17 -25 -39 -48 0
-17 -25 -39 -54 0
-17 -25 -39 -61 0
-17 -25 -48 -54 0
-17 -25 -48 -61 0
-17 -25 -54 -61 0
-17 -34 -39 -48 0
-17 -34 -39 -54 0
-17 -34 -39 -61 0
-17 -34 -48 -54 0
-17 -34 -48 -61 0
-17 -34 -54 -61 0
-17 -39 -48 -54 0
-17 -39 -48 -61 0
-17 -39 -54 -61 0
-17 -48 -54 -61 0
-25 -34 -39 -48 0
-25 -34 -39 -54 0
-25 -34 -39 -61 0
-25 -34 -48 -54 0
-25 -34 -48 -61 0
-25 -34 -54 -61 0
-25 -39 -48 -54 0
-25 -39 -48 -61 0
-25 -39 -54 -61 0
-25 -48 -54 -61 0
-34 -39 -48 -54 0
-34 -39 -48 -61 0
-34 -39 -54 -61 0
-34 -48 -54 -61 0
-39 -48 -54 -61 0
-5 -8 -20 -25 0
-5 -8 -20 -33 0
-5 -8 -20 -36 0
-5 -8 -20 -45 0
-5 -8 -20 -56 0
-5 -8 -20 -57 0
-5 -8 -25 -33 0
-5 -8 -25 -36 0
-5 -8 -25 -45 0
-5 -8 -25 -56 0
-5 -8 -25 -57 0
-5 -8 -33 -36 0
-5 -8 -33 -45 0
-5 -8 -33 -56 0
-5 -8 -33 -57 0
-5 -8 -36 -45 0
-5 -8 -36 -56 0
-5 -8 -36 -57 0
-5 -8 -45 -56 0
-5 -8 -45 -57 0
-5 -8 -56 -57 0
-5 -20 -25 -33 0
-5 -20 -25 -36 0
-5 -20 -25 -45 0
-5 -20 -25 -56 0
-5 -20 -25 -57 0
-5 -20 -33 -36 0
-5 -20 -33 -45 0
-5 -20 -33 -56 0
-5 -20 -33 -57 0
-5 -20 -36 -45 0
-5 -20 -36 -56 0
-5 -20 -36 -57 0
-5 -20 -45 -56 0
-5 -20 -45 -57 0
-5 -20 -56 -57 0
-5 -25 -33 -36 0
-5 -25 -33 -45 0
-5 -25 -33 -56 0
-5 -25 -33 -57 0
-5 -25 -36 -45 0
-5 -25 -36 -56 0
-5 -25 -36 -57 0
-5 -25 -45 -56 0
-5 -25 -45 -57 0
-5 -25 -56 -57 0
-5 -33 -36 -45 0
-5 -33 -36 -56 0
-5 -33 -36 -57 0
-5 -33 -45 -56 0
-5 -33 -45 -57 0
-5 -33 -56 -57 0
-5 -36 -45 -56 0
-5 -36 -45 -57 0
-5 -36 -56 -57 0
-5 -45 -56 -57 0
-8 -20 -25 -33 0
-8 -20 -25 -36 0
-8 -20 -25 -45 0
-8 -20 -25 -56 0
-8 -20 -25 -57 0
-8 -20 -33 -36 0
-8 -20 -33 -45 0
-8 -20 -33 -56 0
-8 -20 -33 -57 0
-8 -20 -36 -45 0
-8 -20 -36 -56 0
-8 -20 -36 -57 0
-8 -20 -45 -56 0
-8 -20 -45 -57 0
-8 -20 -56 -57 0
-8 -25 -33 -36 0
-8 -25 -33 -45 0
-8 -25 -33 -56 0
-8 -25 -33 -57 0
-8 -25 -36 -45 0
-8 -25 -36 -56 0
-8 -25 -36 -57 0
-8 -25 -45 -56 0
-8 -25 -45 -57 0
-8 -25 -56 -57 0
-8 -33 -36 -45 0
-8 -33 -36 -56 0
-8 -33 -36 -57 0
-8 -33 -45 -56 0
-8 -33 -45 -57 0
-8 -33 -56 -57 0
-8 -36 -45 -56 0
-8 -36 -45 -57 0
-8 -36 -56 -57 0
-8 -45 -56 -57 0
-20 -25 -33 -36 0
-20 -25 -33 -45 0
-20 -25 -33 -56 0
-20 -25 -33 -57 0
-20 -25 -36 -45 0
-20 -25 -36 -56 0
-20 -25 -36 -57 0
-20 -25 -45 -56 0
-20 -25 -45 -57 0
-20 -25 -56 -57 0
-20 -33 -36 -45 0
-20 -33 -36 -56 0
-20 -33 -36 -57 0
-20 -33 -45 -56 0
-20 -33 -45 -57 0
-20 -33 -56 -57 0
-20 -36 -45 -56 0
-20 -36 -45 -57 0
-20 -36 -56 -57 0
-20 -45 -56 -57 0
-25 -33 -36 -45 0
-25 -33 -36 -56 0
-25 -33 -36 -57 0
-25 -33 -45 -56 0
-25 -33 -45 -57 0
-25 -33 -56 -57 0
-25 -36 -45 -56 0
-25 -36 -45 -57 0
-25 -36 -56 -57 0
-25 -45 -56 -57 0
-33 -36 -45 -56 0
-33 -36 -45 -57 0
-33 -36 -56 -57 0
-33 -45 -56 -57 0
-36 -45 -56 -57 0
-6 -12 -19 -28 0
-6 -12 -19 -30 0
-6 -12 -19 -38 0
-6 -12 -19 -44 0
-6 -12 -19 -50 0
-6 -12 -19 -63 0
-6 -12 -28 -30 0
-6 -12 -28 -38 0
-6 -12 -28 -44 0
-6 -12 -28 -50 0
-6 -12 -28 -63 0
-6 -12 -30 -38 0
-6 -12 -30 -44 0
-6 -12 -30 -50 0
-6 -12 -30 -63 0
-6 -12 -38 -44 0
-6 -12 -38 -50 0
-6 -12 -38 -63 0
-6 -12 -44 -50 0
-6 -12 -44 -63 0
-6 -12 -50 -63 0
-6 -19 -28 -30 0
-6 -19 -28 -38 0
-6 -19 -28 -44 0
-6 -19 -28 -50 0
-6 -19 -28 -63 0
-6 -19 -30 -38 0
-6 -19 -30 -44 0
-6 -19 -30 -50 0
-6 -19 -30 -63 0
-6 -19 -38 -44 0
-6 -19 -38 -50 0
-6 -19 -38 -63 0
-6 -19 -44 -50 0
-6 -19 -44 -63 0
-6 -19 -50 -63 0
-6 -28 -30 -38 0
-6 -28 -30 -44 0
-6 -28 -30 -50 0
-6 -28 -30 -63 0
-6 -28 -38 -44 0
-6 -28 -38 -50 0
-6 -28 -38 -63 0
-6 -28 -44 -50 0
-6 -28 -44 -63 0
-6 -28 -50 -63 0
-6 -30 -38 -44 0
-6 -30 -38 -50 0
-6 -30 -38 -63 0
-6 -30 -44 -50 0
-6 -30 -44 -63 0
-6 -30 -50 -63 0
-6 -38 -44 -50 0
-6 -38 -44 -63 0
-6 -38 -50 -63 0
-6 -44 -50 -63 0
-12 -19 -28 -30 0
-12 -19 -28 -38 0
-12 -19 -28 -44 0
-12 -19 -28 -50 0
-12 -19 -28 -63 0
-12 -19 -30 -38 0
-12 -19 -30 -44 0
-12 -19 -30 -50 0
-12 -19 -30 -63 0
-12 -19 -38 -44 0
-12 -19 -38 -50 0
-12 -19 -38 -63 0
-12 -19 -44 -50 0
-12 -19 -44 -63 0
-12 -19 -50 -63 0
-12 -28 -30 -38 0
-12 -28 -30 -44 0
-12 -28 -30 -50 0
-12 -28 -30 -63 0
-12 -28 -38 -44 0
-12 -28 -38 -50 0
-12 -28 -38 -63 0
-12 -28 -44 -50 0
-12 -28 -44 -63 0
-12 -28 -50 -63 0
-12 -30 -38 -44 0
-12 -30 -38 -50 0
-12 -30 -38 -63 0
-12 -30 -44 -50 0
-12 -30 -44 -63 0
-12 -30 -50 -63 0
-12 -38 -44 -50 0
-12 -38 -44 -63 0
-12 -38 -50 -63 0
-12 -44 -50 -63 0
-19 -28 -30 -38 0
-19 -28 -30 -44 0
-19 -28 -30 -50 0
-19 -28 -30 -63 0
-19 -28 -38 -44 0
-19 -28 -38 -50 0
-19 -28 -38 -63 0
-19 -28 -44 -50 0
-19 -28 -44 -63 0
-19 -28 -50 -63 0
-19 -30 -38 -44 0
-19 -30 -38 -50 0
-19 -30 -38 -63 0
-19 -30 -44 -50 0
-19 -30 -44 -63 0
-19 -30 -50 -63 0
-19 -38 -44 -50 0
-19 -38 -44 -63 0
-19 -38 -50 -63 0
-19 -44 -50 -63 0
-28 -30 -38 -44 0
-28 -30 -38 -50 0
-28 -30 -38 -63 0
-28 -30 -44 -50 0
-28 -30 -44 -63 0
-28 -30 -50 -63 0
-28 -38 -44 -50 0
-28 -38 -44 -63 0
-28 -38 -50 -63 0
-28 -44 -50 -63 0
-30 -38 -44 -50 0
-30 -38 -44 -63 0
-30 -38 -50 -63 0
-30 -44 -50 -63 0
-38 -44 -50 -63 0
-7 -11 -21 -26 0
-7 -11 -21 -29 0
-7 -11 -21 -41 0
-7 -11 -21 -43 0
-7 -11 -21 -54 0
-7 -11 -21 -62 0
-7 -11 -26 -29 0
-7 -11 -26 -41 0
-7 -11 -26 -43 0
-7 -11 -26 -54 0
-7 -11 -26 -62 0
-7 -11 -29 -41 0
-7 -11 -29 -43 0
-7 -11 -29 -54 0
-7 -11 -29 -62 0
-7 -11 -41 -43 0
-7 -11 -41 -54 0
-7 -11 -41 -62 0
-7 -11 -43 -54 0
-7 -11 -43 -62 0
-7 -11 -54 -62 0
-7 -21 -26 -29 0
-7 -21 -26 -41 0
-7 -21 -26 -43 0
-7 -21 -26 -54 0
-7 -21 -26 -62 0
-7 -21 -29 -41 0
-7 -21 -29 -43 0
-7 -21 -29 -54 0
-7 -21 -29 -62 0
-7 -21 -41 -43 0
-7 -21 -41 -54 0
-7 -21 -41 -62 0
-7 -21 -43 -54 0
-7 -21 -43 -62 0
-7 -21 -54 -62 0
-7 -26 -29 -41 0
-7 -26 -29 -43 0
-7 -26 -29 -54 0
-7 -26 -29 -62 0
-7 -26 -41 -43 0
-7 -26 -41 -54 0
-7 -26 -41 -62 0
-7 -26 -43 -54 0
-7 -26 -43 -62 0
-7 -26 -54 -62 0
-7 -29 -41 -43 0
-7 -29 -41 -54 0
-7 -29 -41 -62 0
-7 -29 -43 -54 0
-7 -29 -43 -62 0
-7 -29 -54 -62 0
-7 -41 -43 -54 0
-7 -41 -43 -62 0
-7 -41 -54 -62 0
-7 -43 -54 -62 0
-11 -21 -26 -29 0
-11 -21 -26 -41 0
-11 -21 -26 -43 0
-11 -21 -26 -54 0
-11 -21 -26 -62 0
-11 -21 -29 -41 0
-11 -21 -29 -43 0
-11 -21 -29 -54 0
-11 -21 -29 -62 0
-11 -21 -41 -43 0
-11 -21 -41 -54 0
-11 -21 -41 -62 0
-11 -21 -43 -54 0
-11 -21 -43 -62 0
-11 -21 -54 -62 0
-11 -26 -29 -41 0
-11 -26 -29 -43 0
-11 -26 -29 -54 0
-11 -26 -29 -62 0
-11 -26 -41 -43 0
-11 -26 -41 -54 0
-11 -26 -41 -62 0
-11 -26 -43 -54 0
-11 -26 -43 -62 0
-11 -26 -54 -62 0
-11 -29 -41 -43 0
-11 -29 -41 -54 0
-11 -29 -41 -62 0
-11 -29 -43 -54 0
-11 -29 -43 -62 0
-11 -29 -54 -62 0
-11 -41 -43 -54 0
-11 -41 -43 -62 0
-11 -41 -54 -62 0
-11 -43 -54 -62 0
-21 -26 -29 -41 0
-21 -26 -29 -43 0
-21 -26 -29 -54 0
-21 -26 -29 -62 0
-21 -26 -41 -43 0
-21 -26 -41 -54 0
-21 -26 -41 -62 0
-21 -26 -43 -54 0
-21 -26 -43 -62 0
-21 -26 -54 -62 0
-21 -29 -41 -43 0
-21 -29 -41 -54 0
-21 -29 -41 -62 0
-21 -29 -43 -54 0
-21 -29 -43 -62 0
-21 -29 -54 -62 0
-21 -41 -43 -54 0
-21 -41 -43 -62 0
-21 -41 -54 -62 0
-21 -43 -54 -62 0
-26 -29 -41 -43 0
-26 -29 -41 -54 0
-26 -29 -41 -62 0
-26 -29 -43 -54 0
-26 -29 -43 -62 0
-26 -29 -54 -62 0
-26 -41 -43 -54 0
-26 -41 -43 -62 0
-26 -41 -54 -62 0
-26 -43 -54 -62 0
-29 -41 -43 -54 0
-29 -41 -43 -62 0
-29 -41 -54 -62 0
-29 -43 -54 -62 0
-41 -43 -54 -62 0
-3 -8 -16 -22 0
-3 -8 -16 -35 0
-3 -8 -16 -41 0
-3 -8 -16 -44 0
-3 -8 -16 -52 0
-3 -8 -16 -63 0
-3 -8 -22 -35 0
-3 -8 -22 -41 0
-3 -8 -22 -44 0
-3 -8 -22 -52 0
-3 -8 -22 -63 0
-3 -8 -35 -41 0
-3 -8 -35 -44 0
-3 -8 -35 -52 0
-3 -8 -35 -63 0
-3 -8 -41 -44 0
-3 -8 -41 -52 0
-3 -8 -41 -63 0
-3 -8 -44 -52 0
-3 -8 -44 -63 0
-3 -8 -52 -63 0
-3 -16 -22 -35 0
-3 -16 -22 -41 0
-3 -16 -22 -44 0
-3 -16 -22 -52 0
-3 -16 -22 -63 0
-3 -16 -35 -41 0
-3 -16 -35 -44 0
-3 -16 -35 -52 0
-3 -16 -35 -63 0
-3 -16 -41 -44 0
-3 -16 -41 -52 0
-3 -16 -41 -63 0
-3 -16 -44 -52 0
-3 -16 -44 -63 0
-3 -16 -52 -63 0
-3 -22 -35 -41 0
-3 -22 -35 -44 0
-3 -22 -35 -52 0
-3 -22 -35 -63 0
-3 -22 -41 -44 0
-3 -22 -41 -52 0
-3 -22 -41 -63 0
-3 -22 -44 -52 0
-3 -22 -44 -63 0
-3 -22 -52 -63 0
-3 -35 -41 -44 0
-3 -35 -41 -52 0
-3 -35 -41 -63 0
-3 -35 -44 -52 0
-3 -35 -44 -63 0
-3 -35 -52 -63 0
-3 -41 -44 -52 0
-3 -41 -44 -63 0
-3 -41 -52 -63 0
-3 -44 -52 -63 0
-8 -16 -22 -35 0
-8 -16 -22 -41 0
-8 -16 -22 -44 0
-8 -16 -22 -52 0
-8 -16 -22 -63 0
-8 -16 -35 -41 0
-8 -16 -35 -44 0
-8 -16 -35 -52 0
-8 -16 -35 -63 0
-8 -16 -41 -44 0
-8 -16 -41 -52 0
-8 -16 -41 -63 0
-8 -16 -44 -52 0
-8 -16 -44 -63 0
-8 -16 -52 -63 0
-8 -22 -35 -41 0
-8 -22 -35 -44 0
-8 -22 -35 -52 0
-8 -22 -35 -63 0
-8 -22 -41 -44 0
-8 -22 -41 -52 0
-8 -22 -41 -63 0
-8 -22 -44 -52 0
-8 -22 -44 -63 0
-8 -22 -52 -63 0
-8 -35 -41 -44 0
-8 -35 -41 -52 0
-8 -35 -41 -63 0
-8 -35 -44 -52 0
-8 -35 -44 -63 0
-8 -35 -52 -63 0
-8 -41 -44 -52 0
-8 -41 -44 -63 0
-8 -41 -52 -63 0
-8 -44 -52 -63 0
-16 -22 -35 -41 0
-16 -22 -35 -44 0
-16 -22 -35 -52 0
-16 -22 -35 -63 0
-16 -22 -41 -44 0
-16 -22 -41 -52 0
-16 -22 -41 -63 0
-16 -22 -44 -52 0
-16 -22 -44 -63 0
-16 -22 -52 -63 0
-16 -35 -41 -44 0
-16 -35 -41 -52 0
-16 -35 -41 -63 0
-16 -35 -44 -52 0
-16 -35 -44 -63 0
-16 -35 -52 -63 0
-16 -41 -44 -52 0
-16 -41 -44 -63 0
-16 -41 -52 -63 0
-16 -44 -52 -63 0
-22 -35 -41 -44 0
-22 -35 -41 -52 0
-22 -35 -41 -63 0
-22 -35 -44 -52 0
-22 -35 -44 -63 0
-22 -35 -52 -63 0
-22 -41 -44 -52 0
-22 -41 -44 -63 0
-22 -41 -52 -63 0
-22 -44 -52 -63 0
-35 -41 -44 -52 0
-35 -41 -44 -63 0
-35 -41 -52 -63 0
-35 -44 -52 -63 0
-41 -44 -52 -63 0
-4 -14 -16 -27 0
-4 -14 -16 -33 0
-4 -14 -16 -37 0
-4 -14 -16 -45 0
-4 -14 -16 -53 0
-4 -14 -16 -61 0
-4 -14 -27 -33 0
-4 -14 -27 -37 0
-4 -14 -27 -45 0
-4 -14 -27 -53 0
-4 -14 -27 -61 0
-4 -14 -33 -37 0
-4 -14 -33 -45 0
-4 -14 -33 -53 0
-4 -14 -33 -61 0
-4 -14 -37 -45 0
-4 -14 -37 -53 0
-4 -14 -37 -61 0
-4 -14 -45 -53 0
-4 -14 -45 -61 0
-4 -14 -53 -61 0
-4 -16 -27 -33 0
-4 -16 -27 -37 0
-4 -16 -27 -45 0
-4 -16 -27 -53 0
-4 -16 -27 -61 0
-4 -16 -33 -37 0
-4 -16 -33 -45 0
-4 -16 -33 -53 0
-4 -16 -33 -61 0
-4 -16 -37 -45 0
-4 -16 -37 -53 0
-4 -16 -37 -61 0
-4 -16 -45 -53 0
-4 -16 -45 -61 0
-4 -16 -53 -61 0
-4 -27 -33 -37 0
-4 -27 -33 -45 0
-4 -27 -33 -53 0
-4 -27 -33 -61 0
-4 -27 -37 -45 0
-4 -27 -37 -53 0
-4 -27 -37 -61 0
-4 -27 -45 -53 0
-4 -27 -45 -61 0
-4 -27 -53 -61 0
-4 -33 -37 -45 0
-4 -33 -37 -53 0
-4 -33 -37 -61 0
-4 -33 -45 -53 0
-4 -33 -45 -61 0
-4 -33 -53 -61 0
-4 -37 -45 -53 0
-4 -37 -45 -61 0
-4 -37 -53 -61 0
-4 -45 -53 -61 0
-14 -16 -27 -33 0
-14 -16 -27 -37 0
-14 -16 -27 -45 0
-14 -16 -27 -53 0
-14 -16 -27 -61 0
-14 -16 -33 -37 0
-14 -16 -33 -45 0
-14 -16 -33 -53 0
-14 -16 -33 -61 0
-14 -16 -37 -45 0
-14 -16 -37 -53 0
-14 -16 -37 -61 0
-14 -16 -45 -53 0
-14 -16 -45 -61 0
-14 -16 -53 -61 0
-14 -27 -33 -37 0
-14 -27 -33 -45 0
-14 -27 -33 -53 0
-14 -27 -33 -61 0
-14 -27 -37 -45 0
-14 -27 -37 -53 0
-14 -27 -37 -61 0
-14 -27 -45 -53 0
-14 -27 -45 -61 0
-14 -27 -53 -61 0
-14 -33 -37 -45 0
-14 -33 -37 -53 0
-14 -33 -37 -61 0
-14 -33 -45 -53 0
-14 -33 -45 -61 0
-14 -33 -53 -61 0
-14 -37 -45 -53 0
-14 -37 -45 -61 0
-14 -37 -53 -61 0
-14 -45 -53 -61 0
-16 -27 -33 -37 0
-16 -27 -33 -45 0
-16 -27 -33 -53 0
-16 -27 -33 -61 0
-16 -27 -37 -45 0
-16 -27 -37 -53 0
-16 -27 -37 -61 0
-16 -27 -45 -53 0
-16 -27 -45 -61 0
-16 -27 -53 -61 0
-16 -33 -37 -45 0
-16 -33 -37 -53 0
-16 -33 -37 -61 0
-16 -33 -45 -53 0
-16 -33 -45 -61 0
-16 -33 -53 -61 0
-16 -37 -45 -53 0
-16 -37 -45 -61 0
-16 -37 -53 -61 0
-16 -45 -53 -61 0
-27 -33 -37 -45 0
-27 -33 -37 -53 0
-27 -33 -37 -61 0
-27 -33 -45 -53 0
-27 -33 -45 -61 0
-27 -33 -53 -61 0
-27 -37 -45 -53 0
-27 -37 -45 -61 0
-27 -37 -53 -61 0
-27 -45 -53 -61 0
-33 -37 -45 -53 0
-33 -37 -45 -61 0
-33 -37 -53 -61 0
-33 -45 -53 -61 0
-37 -45 -53 -61 0
-3 -10 -21 -23 0
-3 -10 -21 -30 0
-3 -10 -21 -36 0
-3 -10 -21 -44 0
-3 -10 -21 -56 0
-3 -10 -21 -63 0
-3 -10 -23 -30 0
-3 -10 -23 -36 0
-3 -10 -23 -44 0
-3 -10 -23 -56 0
-3 -10 -23 -63 0
-3 -10 -30 -36 0
-3 -10 -30 -44 0
-3 -10 -30 -56 0
-3 -10 -30 -63 0
-3 -10 -36 -44 0
-3 -10 -36 -56 0
-3 -10 -36 -63 0
-3 -10 -44 -56 0
-3 -10 -44 -63 0
-3 -10 -56 -63 0
-3 -21 -23 -30 0
-3 -21 -23 -36 0
-3 -21 -23 -44 0
-3 -21 -23 -56 0
-3 -21 -23 -63 0
-3 -21 -30 -36 0
-3 -21 -30 -44 0
-3 -21 -30 -56 0
-3 -21 -30 -63 0
-3 -21 -36 -44 0
-3 -21 -36 -56 0
-3 -21 -36 -63 0
-3 -21 -44 -56 0
-3 -21 -44 -63 0
-3 -21 -56 -63 0
-3 -23 -30 -36 0
-3 -23 -30 -44 0
-3 -23 -30 -56 0
-3 -23 -30 -63 0
-3 -23 -36 -44 0
-3 -23 -36 -56 0
-3 -23 -36 -63 0
-3 -23 -44 -56 0
-3 -23 -44 -63 0
-3 -23 -56 -63 0
-3 -30 -36 -44 0
-3 -30 -36 -56 0
-3 -30 -36 -63 0
-3 -30 -44 -56 0
-3 -30 -44 -63 0
-3 -30 -56 -63 0
-3 -36 -44 -56 0
-3 -36 -44 -63 0
-3 -36 -56 -63 0
-3 -44 -56 -63 0
-10 -21 -23 -30 0
-10 -21 -23 -36 0
-10 -21 -23 -44 0
-10 -21 -23 -56 0
-10 -21 -23 -63 0
-10 -21 -30 -36 0
-10 -21 -30 -44 0
-10 -21 -30 -56 0
-10 -21 -30 -63 0
-10 -21 -36 -44 0
-10 -21 -36 -56 0
-10 -21 -36 -63 0
-10 -21 -44 -56 0
-10 -21 -44 -63 0
-10 -21 -56 -63 0
-10 -23 -30 -36 0
-10 -23 -30 -44 0
-10 -23 -30 -56 0
-10 -23 -30 -63 0
-10 -23 -36 -44 0
-10 -23 -36 -56 0
-10 -23 -36 -63 0
-10 -23 -44 -56 0
-10 -23 -44 -63 0
-10 -23 -56 -63 0
-10 -30 -36 -44 0
-10 -30 -36 -56 0
-10 -30 -36 -63 0
-10 -30 -44 -56 0
-10 -30 -44 -63 0
-10 -30 -56 -63 0
-10 -36 -44 -56 0
-10 -36 -44 -63 0
-10 -36 -56 -63 0
-10 -44 -56 -63 0
-21 -23 -30 -36 0
-21 -23 -30 -44 0
-21 -23 -30 -56 0
-21 -23 -30 -63 0
-21 -23 -36 -44 0
-21 -23 -36 -56 0
-21 -23 -36 -63 0
-21 -23 -44 -56 0
-21 -23 -44 -63 0
-21 -23 -56 -63 0
-21 -30 -36 -44 0
-21 -30 -36 -56 0
-21 -30 -36 -63 0
-21 -30 -44 -56 0
-21 -30 -44 -63 0
-21 -30 -56 -63 0
-21 -36 -44 -56 0
-21 -36 -44 -63 0
-21 -36 -56 -63 0
-21 -44 -56 -63 0
-23 -30 -36 -44 0
-23 -30 -36 -56 0
-23 -30 -36 -63 0
-23 -30 -44 -56 0
-23 -30 -44 -63 0
-23 -30 -56 -63 0
-23 -36 -44 -56 0
-23 -36 -44 -63 0
-23 -36 -56 -63 0
-23 -44 -56 -63 0
-30 -36 -44 -56 0
-30 -36 -44 -63 0
-30 -36 -56 -63 0
-30 -44 -56 -63 0
-36 -44 -56 -63 0
-4 -11 -19 -23 0
-4 -11 -19 -30 0
-4 -11 -19 -39 0
-4 -11 -19 -49 0
-4 -11 -19 -55 0
-4 -11 -19 -57 0
-4 -11 -23 -30 0
-4 -11 -23 -39 0
-4 -11 -23 -49 0
-4 -11 -23 -55 0
-4 -11 -23 -57 0
-4 -11 -30 -39 0
-4 -11 -30 -49 0
-4 -11 -30 -55 0
-4 -11 -30 -57 0
-4 -11 -39 -49 0
-4 -11 -39 -55 0
-4 -11 -39 -57 0
-4 -11 -49 -55 0
-4 -11 -49 -57 0
-4 -11 -55 -57 0
-4 -19 -23 -30 0
-4 -19 -23 -39 0
-4 -19 -23 -49 0
-4 -19 -23 -55 0
-4 -19 -23 -57 0
-4 -19 -30 -39 0
-4 -19 -30 -49 0
-4 -19 -30 -55 0
-4 -19 -30 -57 0
-4 -19 -39 -49 0
-4 -19 -39 -55 0
-4 -19 -39 -57 0
-4 -19 -49 -55 0
-4 -19 -49 -57 0
-4 -19 -55 -57 0
-4 -23 -30 -39 0
-4 -23 -30 -49 0
-4 -23 -30 -55 0
-4 -23 -30 -57 0
-4 -23 -39 -49 0
-4 -23 -39 -55 0
-4 -23 -39 -57 0
-4 -23 -49 -55 0
-4 -23 -49 -57 0
-4 -23 -55 -57 0
-4 -30 -39 -49 0
-4 -30 -39 -55 0
-4 -30 -39 -57 0
-4 -30 -49 -55 0
-4 -30 -49 -57 0
-4 -30 -55 -57 0
-4 -39 -49 -55 0
-4 -39 -49 -57 0
-4 -39 -55 -57 0
-4 -49 -55 -57 0
-11 -19 -23 -30 0
-11 -19 -23 -39 0
-11 -19 -23 -49 0
-11 -19 -23 -55 0
-11 -19 -23 -57 0
-11 -19 -30 -39 0
-11 -19 -30 -49 0
-11 -19 -30 -55 0
-11 -19 -30 -57 0
-11 -19 -39 -49 0
-11 -19 -39 -55 0
-11 -19 -39 -57 0
-11 -19 -49 -55 0
-11 -19 -49 -57 0
-11 -19 -55 -57 0
-11 -23 -30 -39 0
-11 -23 -30 -49 0
-11 -23 -30 -55 0
-11 -23 -30 -57 0
-11 -23 -39 -49 0
-11 -23 -39 -55 0
-11 -23 -39 -57 0
-11 -23 -49 -55 0
-11 -23 -49 -57 0
-11 -23 -55 -57 0
-11 -30 -39 -49 0
-11 -30 -39 -55 0
-11 -30 -39 -57 0
-11 -30 -49 -55 0
-11 -30 -49 -57 0
-11 -30 -55 -57 0
-11 -39 -49 -55 0
-11 -39 -49 -57 0
-11 -39 -55 -57 0
-11 -49 -55 -57 0
-19 -23 -30 -39 0
-19 -23 -30 -49 0
-19 -23 -30 -55 0
-19 -23 -30 -57 0
-19 -23 -39 -49 0
-19 -23 -39 -55 0
-19 -23 -39 -57 0
-19 -23 -49 -55 0
-19 -23 -49 -57 0
-19 -23 -55 -57 0
-19 -30 -39 -49 0
-19 -30 -39 -55 0
-19 -30 -39 -57 0
-19 -30 -49 -55 0
-19 -30 -49 -57 0
-19 -30 -55 -57 0
-19 -39 -49 -55 0
-19 -39 -49 -57 0
-19 -39 -55 -57 0
-19 -49 -55 -57 0
-23 -30 -39 -49 0
-23 -30 -39 -55 0
-23 -30 -39 -57 0
-23 -30 -49 -55 0
-23 -30 -49 -57 0
-23 -30 -55 -57 0
-23 -39 -49 -55 0
-23 -39 -49 -57 0
-23 -39 -55 -57 0
-23 -49 -55 -57 0
-30 -39 -49 -55 0
-30 -39 -49 -57 0
-30 -39 -55 -57 0
-30 -49 -55 -57 0
-39 -49 -55 -57 0
-1 -8 -15 -28 0
-1 -8 -15 -31 0
-1 -8 -15 -41 0
-1 -8 -15 -47 0
-1 -8 -15 -53 0
-1 -8 -15 -58 0
-1 -8 -28 -31 0
-1 -8 -28 -41 0
-1 -8 -28 -47 0
-1 -8 -28 -53 0
-1 -8 -28 -58 0
-1 -8 -31 -41 0
-1 -8 -31 -47 0
-1 -8 -31 -53 0
-1 -8 -31 -58 0
-1 -8 -41 -47 0
-1 -8 -41 -53 0
-1 -8 -41 -58 0
-1 -8 -47 -53 0
-1 -8 -47 -58 0
-1 -8 -53 -58 0
-1 -15 -28 -31 0
-1 -15 -28 -41 0
-1 -15 -28 -47 0
-1 -15 -28 -53 0
-1 -15 -28 -58 0
-1 -15 -31 -41 0
-1 -15 -31 -47 0
-1 -15 -31 -53 0
-1 -15 -31 -58 0
-1 -15 -41 -47 0
-1 -15 -41 -53 0
-1 -15 -41 -58 0
-1 -15 -47 -53 0
-1 -15 -47 -58 0
-1 -15 -53 -58 0
-1 -28 -31 -41 0
-1 -28 -31 -47 0
-1 -28 -31 -53 0
-1 -28 -31 -58 0
-1 -28 -41 -47 0
-1 -28 -41 -53 0
-1 -28 -41 -58 0
-1 -28 -47 -53 0
-1 -28 -47 -58 0
-1 -28 -53 -58 0
-1 -31 -41 -47 0
-1 -31 -41 -53 0
-1 -31 -41 -58 0
-1 -31 -47 -53 0
-1 -31 -47 -58 0
-1 -31 -53 -58 0
-1 -41 -47 -53 0
-1 -41 -47 -58 0
-1 -41 -53 -58 0
-1 -47 -53 -58 0
-8 -15 -28 -31 0
-8 -15 -28 -41 0
-8 -15 -28 -47 0
-8 -15 -28 -53 0
-8 -15 -28 -58 0
-8 -15 -31 -41 0
-8 -15 -31 -47 0
-8 -15 -31 -53 0
-8 -15 -31 -58 0
-8 -15 -41 -47 0
-8 -15 -41 -53 0
-8 -15 -41 -58 0
-8 -15 -47 -53 0
-8 -15 -47 -58 0
-8 -15 -53 -58 0
-8 -28 -31 -41 0
-8 -28 -31 -47 0
-8 -28 -31 -53 0
-8 -28 -31 -58 0
-8 -28 -41 -47 0
-8 -28 -41 -53 0
-8 -28 -41 -58 0
-8 -28 -47 -53 0
-8 -28 -47 -58 0
-8 -28 -53 -58 0
-8 -31 -41 -47 0
-8 -31 -41 -53 0
-8 -31 -41 -58 0
-8 -31 -47 -53 0
-8 -31 -47 -58 0
-8 -31 -53 -58 0
-8 -41 -47 -53 0
-8 -41 -47 -58 0
-8 -41 -53 -58 0
-8 -47 -53 -58 0
-15 -28 -31 -41 0
-15 -28 -31 -47 0
-15 -28 -31 -53 0
-15 -28 -31 -58 0
-15 -28 -41 -47 0
-15 -28 -41 -53 0
-15 -28 -41 -58 0
-15 -28 -47 -53 0
-15 -28 -47 -58 0
-15 -28 -53 -58 0
-15 -31 -41 -47 0
-15 -31 -41 -53 0
-15 -31 -41 -58 0
-15 -31 -47 -53 0
-15 -31 -47 -58 0
-15 -31 -53 -58 0
-15 -41 -47 -53 0
-15 -41 -47 -58 0
-15 -41 -53 -58 0
-15 -47 -53 -58 0
-28 -31 -41 -47 0
-28 -31 -41 -53 0
-28 -31 -41 -58 0
-28 -31 -47 -53 0
-28 -31 -47 -58 0
-28 -31 -53 -58 0
-28 -41 -47 -53 0
-28 -41 -47 -58 0
-28 -41 -53 -58 0
-28 -47 -53 -58 0
-31 -41 -47 -53 0
-31 -41 -47 -58 0
-31 -41 -53 -58 0
-31 -47 -53 -58 0
-41 -47 -53 -58 0
-2 -9 -17 -28 0
-2 -9 -17 -33 0
-2 -9 -17 -41 0
-2 -9 -17 -48 0
-2 -9 -17 -53 0
-2 -9 -17 -62 0
-2 -9 -28 -33 0
-2 -9 -28 -41 0
-2 -9 -28 -48 0
-2 -9 -28 -53 0
-2 -9 -28 -62 0
-2 -9 -33 -41 0
-2 -9 -33 -48 0
-2 -9 -33 -53 0
-2 -9 -33 -62 0
-2 -9 -41 -48 0
-2 -9 -41 -53 0
-2 -9 -41 -62 0
-2 -9 -48 -53 0
-2 -9 -48 -62 0
-2 -9 -53 -62 0
-2 -17 -28 -33 0
-2 -17 -28 -41 0
-2 -17 -28 -48 0
-2 -17 -28 -53 0
-2 -17 -28 -62 0
-2 -17 -33 -41 0
-2 -17 -33 -48 0
-2 -17 -33 -53 0
-2 -17 -33 -62 0
-2 -17 -41 -48 0
-2 -17 -41 -53 0
-2 -17 -41 -62 0
-2 -17 -48 -53 0
-2 -17 -48 -62 0
-2 -17 -53 -62 0
-2 -28 -33 -41 0
-2 -28 -33 -48 0
-2 -28 -33 -53 0
-2 -28 -33 -62 0
-2 -28 -41 -48 0
-2 -28 -41 -53 0
-2 -28 -41 -62 0
-2 -28 -48 -53 0
-2 -28 -48 -62 0
-2 -28 -53 -62 0
-2 -33 -41 -48 0
-2 -33 -41 -53 0
-2 -33 -41 -62 0
-2 -33 -48 -53 0
-2 -33 -48 -62 0
-2 -33 -53 -62 0
-2 -41 -48 -53 0
-2 -41 -48 -62 0
-2 -41 -53 -62 0
-2 -48 -53 -62 0
-9 -17 -28 -33 0
-9 -17 -28 -41 0
-9 -17 -28 -48 0
-9 -17 -28 -53 0
-9 -17 -28 -62 0
-9 -17 -33 -41 0
-9 -17 -33 -48 0
-9 -17 -33 -53 0
-9 -17 -33 -62 0
-9 -17 -41 -48 0
-9 -17 -41 -53 0
-9 -17 -41 -62 0
-9 -17 -48 -53 0
-9 -17 -48 -62 0
-9 -17 -53 -62 0
-9 -28 -33 -41 0
-9 -28 -33 -48 0
-9 -28 -33 -53 0
-9 -28 -33 -62 0
-9 -28 -41 -48 0
-9 -28 -41 -53 0
-9 -28 -41 -62 0
-9 -28 -48 -53 0
-9 -28 -48 -62 0
-9 -28 -53 -62 0
-9 -33 -41 -48 0
-9 -33 -41 -53 0
-9 -33 -41 -62 0
-9 -33 -48 -53 0
-9 -33 -48 -62 0
-9 -33 -53 -62 0
-9 -41 -48 -53 0
-9 -41 -48 -62 0
-9 -41 -53 -62 0
-9 -48 -53 -62 0
-17 -28 -33 -41 0
-17 -28 -33 -48 0
-17 -28 -33 -53 0
-17 -28 -33 -62 0
-17 -28 -41 -48 0
-17 -28 -41 -53 0
-17 -28 -41 -62 0
-17 -28 -48 -53 0
-17 -28 -48 -62 0
-17 -28 -53 -62 0
-17 -33 -41 -48 0
-17 -33 -41 -53 0
-17 -33 -41 -62 0
-17 -33 -48 -53 0
-17 -33 -48 -62 0
-17 -33 -53 -62 0
-17 -41 -48 -53 0
-17 -41 -48 -62 0
-17 -41 -53 -62 0
-17 -48 -53 -62 0
-28 -33 -41 -48 0
-28 -33 -41 -53 0
-28 -33 -41 -62 0
-28 -33 -48 -53 0
-28 -33 -48 -62 0
-28 -33 -53 -62 0
-28 -41 -48 -53 0
-28 -41 -48 -62 0
-28 -41 -53 -62 0
-28 -48 -53 -62 0
-33 -41 -48 -53 0
-33 -41 -48 -62 0
-33 -41 -53 -62 0
-33 -48 -53 -62 0
-41 -48 -53 -62 0
-3 -9 -15 -28 0
-3 -9 -15 -33 0
-3 -9 -15 -40 0
-3 -9 -15 -49 0
-3 -9 -15 -56 0
-3 -9 -15 -60 0
-3 -9 -28 -33 0
-3 -9 -28 -40 0
-3 -9 -28 -49 0
-3 -9 -28 -56 0
-3 -9 -28 -60 0
-3 -9 -33 -40 0
-3 -9 -33 -49 0
-3 -9 -33 -56 0
-3 -9 -33 -60 0
-3 -9 -40 -49 0
-3 -9 -40 -56 0
-3 -9 -40 -60 0
-3 -9 -49 -56 0
-3 -9 -49 -60 0
-3 -9 -56 -60 0
-3 -15 -28 -33 0
-3 -15 -28 -40 0
-3 -15 -28 -49 0
-3 -15 -28 -56 0
-3 -15 -28 -60 0
-3 -15 -33 -40 0
-3 -15 -33 -49 0
-3 -15 -33 -56 0
-3 -15 -33 -60 0
-3 -15 -40 -49 0
-3 -15 -40 -56 0
-3 -15 -40 -60 0
-3 -15 -49 -56 0
-3 -15 -49 -60 0
-3 -15 -56 -60 0
-3 -28 -33 -40 0
-3 -28 -33 -49 0
-3 -28 -33 -56 0
-3 -28 -33 -60 0
-3 -28 -40 -49 0
-3 -28 -40 -56 0
-3 -28 -40 -60 0
-3 -28 -49 -56 0
-3 -28 -49 -60 0
-3 -28 -56 -60 0
-3 -33 -40 -49 0
-3 -33 -40 -56 0
-3 -33 -40 -60 0
-3 -33 -49 -56 0
-3 -33 -49 -60 0
-3 -33 -56 -60 0
-3 -40 -49 -56 0
-3 -40 -49 -60 0
-3 -40 -56 -60 0
-3 -49 -56 -60 0
-9 -15 -28 -33 0
-9 -15 -28 -40 0
-9 -15 -28 -49 0
-9 -15 -28 -56 0
-9 -15 -28 -60 0
-9 -15 -33 -40 0
-9 -15 -33 -49 0
-9 -15 -33 -56 0
-9 -15 -33 -60 0
-9 -15 -40 -49 0
-9 -15 -40 -56 0
-9 -15 -40 -60 0
-9 -15 -49 -56 0
-9 -15 -49 -60 0
-9 -15 -56 -60 0
-9 -28 -33 -40 0
-9 -28 -33 -49 0
-9 -28 -33 -56 0
-9 -28 -33 -60 0
-9 -28 -40 -49 0
-9 -28 -40 -56 0
-9 -28 -40 -60 0
-9 -28 -49 -56 0
-9 -28 -49 -60 0
-9 -28 -56 -60 0
-9 -33 -40 -49 0
-9 -33 -40 -56 0
-9 -33 -40 -60 0
-9 -33 -49 -56 0
-9 -33 -49 -60 0
-9 -33 -56 -60 0
-9 -40 -49 -56 0
-9 -40 -49 -60 0
-9 -40 -56 -60 0
-9 -49 -56 -60 0
-15 -28 -33 -40 0
-15 -28 -33 -49 0
-15 -28 -33 -56 0
-15 -28 -33 -60 0
-15 -28 -40 -49 0
-15 -28 -40 -56 0
-15 -28 -40 -60 0
-15 -28 -49 -56 0
-15 -28 -49 -60 0
-15 -28 -56 -60 0
-15 -33 -40 -49 0
-15 -33 -40 -56 0
-15 -33 -40 -60 0
-15 -33 -49 -56 0
-15 -33 -49 -60 0
-15 -33 -56 -60 0
-15 -40 -49 -56 0
-15 -40 -49 -60 0
-15 -40 -56 -60 0
-15 -49 -56 -60 0
-28 -33 -40 -49 0
-28 -33 -40 -56 0
-28 -33 -40 -60 0
-28 -33 -49 -56 0
-28 -33 -49 -60 0
-28 -33 -56 -60 0
-28 -40 -49 -56 0
-28 -40 -49 -60 0
-28 -40 -56 -60 0
-28 -49 -56 -60 0
-33 -40 -49 -56 0
-33 -40 -49 -60 0
-33 -40 -56 -60 0
-33 -49 -56 -60 0
-40 -49 -56 -60 0
-2 -9 -19 -25 0
-2 -9 -19 -35 0
-2 -9 -19 -39 0
-2 -9 -19 -49 0
-2 -9 -19 -56 0
-2 -9 -19 -58 0
-2 -9 -25 -35 0
-2 -9 -25 -39 0
-2 -9 -25 -49 0
-2 -9 -25 -56 0
-2 -9 -25 -58 0
-2 -9 -35 -39 0
-2 -9 -35 -49 0
-2 -9 -35 -56 0
-2 -9 -35 -58 0
-2 -9 -39 -49 0
-2 -9 -39 -56 0
-2 -9 -39 -58 0
-2 -9 -49 -56 0
-2 -9 -49 -58 0
-2 -9 -56 -58 0
-2 -19 -25 -35 0
-2 -19 -25 -39 0
-2 -19 -25 -49 0
-2 -19 -25 -56 0
-2 -19 -25 -58 0
-2 -19 -35 -39 0
-2 -19 -35 -49 0
-2 -19 -35 -56 0
-2 -19 -35 -58 0
-2 -19 -39 -49 0
-2 -19 -39 -56 0
-2 -19 -39 -58 0
-2 -19 -49 -56 0
-2 -19 -49 -58 0
-2 -19 -56 -58 0
-2 -25 -35 -39 0
-2 -25 -35 -49 0
-2 -25 -35 -56 0
-2 -25 -35 -58 0
-2 -25 -39 -49 0
-2 -25 -39 -56 0
-2 -25 -39 -58 0
-2 -25 -49 -56 0
-2 -25 -49 -58 0
-2 -25 -56 -58 0
-2 -35 -39 -49 0
-2 -35 -39 -56 0
-2 -35 -39 -58 0
-2 -35 -49 -56 0
-2 -35 -49 -58 0
-2 -35 -56 -58 0
-2 -39 -49 -56 0
-2 -39 -49 -58 0
-2 -39 -56 -58 0
-2 -49 -56 -58 0
-9 -19 -25 -35 0
-9 -19 -25 -39 0
-9 -19 -25 -49 0
-9 -19 -25 -56 0
-9 -19 -25 -58 0
-9 -19 -35 -39 0
-9 -19 -35 -49 0
-9 -19 -35 -56 0
-9 -19 -35 -58 0
-9 -19 -39 -49 0
-9 -19 -39 -56 0
-9 -19 -39 -58 0
-9 -19 -49 -56 0
-9 -19 -49 -58 0
-9 -19 -56 -58 0
-9 -25 -35 -39 0
-9 -25 -35 -49 0
-9 -25 -35 -56 0
-9 -25 -35 -58 0
-9 -25 -39 -49 0
-9 -25 -39 -56 0
-9 -25 -39 -58 0
-9 -25 -49 -56 0
-9 -25 -49 -58 0
-9 -25 -56 -58 0
-9 -35 -39 -49 0
-9 -35 -39 -56 0
-9 -35 -39 -58 0
-9 -35 -49 -56 0
-9 -35 -49 -58 0
-9 -35 -56 -58 0
-9 -39 -49 -56 0
-9 -39 -49 -58 0
-9 -39 -56 -58 0
-9 -49 -56 -58 0
-19 -25 -35 -39 0
-19 -25 -35 -49 0
-19 -25 -35 -56 0
-19 -25 -35 -58 0
-19 -25 -39 -49 0
-19 -25 -39 -56 0
-19 -25 -39 -58 0
-19 -25 -49 -56 0
-19 -25 -49 -58 0
-19 -25 -56 -58 0
-19 -35 -39 -49 0
-19 -35 -39 -56 0
-19 -35 -39 -58 0
-19 -35 -49 -56 0
-19 -35 -49 -58 0
-19 -35 -56 -58 0
-19 -39 -49 -56 0
-19 -39 -49 -58 0
-19 -39 -56 -58 0
-19 -49 -56 -58 0
-25 -35 -39 -49 0
-25 -35 -39 -56 0
-25 -35 -39 -58 0
-25 -35 -49 -56 0
-25 -35 -49 -58 0
-25 -35 -56 -58 0
-25 -39 -49 -56 0
-25 -39 -49 -58 0
-25 -39 -56 -58 0
-25 -49 -56 -58 0
-35 -39 -49 -56 0
-35 -39 -49 -58 0
-35 -39 -56 -58 0
-35 -49 -56 -58 0
-39 -49 -56 -58 0
-3 -9 -18 -26 0
-3 -9 -18 -35 0
-3 -9 -18 -42 0
-3 -9 -18 -44 0
-3 -9 -18 -50 0
-3 -9 -18 -58 0
-3 -9 -26 -35 0
-3 -9 -26 -42 0
-3 -9 -26 -44 0
-3 -9 -26 -50 0
-3 -9 -26 -58 0
-3 -9 -35 -42 0
-3 -9 -35 -44 0
-3 -9 -35 -50 0
-3 -9 -35 -58 0
-3 -9 -42 -44 0
-3 -9 -42 -50 0
-3 -9 -42 -58 0
-3 -9 -44 -50 0
-3 -9 -44 -58 0
-3 -9 -50 -58 0
-3 -18 -26 -35 0
-3 -18 -26 -42 0
-3 -18 -26 -44 0
-3 -18 -26 -50 0
-3 -18 -26 -58 0
-3 -18 -35 -42 0
-3 -18 -35 -44 0
-3 -18 -35 -50 0
-3 -18 -35 -58 0
-3 -18 -42 -44 0
-3 -18 -42 -50 0
-3 -18 -42 -58 0
-3 -18 -44 -50 0
-3 -18 -44 -58 0
-3 -18 -50 -58 0
-3 -26 -35 -42 0
-3 -26 -35 -44 0
-3 -26 -35 -50 0
-3 -26 -35 -58 0
-3 -26 -42 -44 0
-3 -26 -42 -50 0
-3 -26 -42 -58 0
-3 -26 -44 -50 0
-3 -26 -44 -58 0
-3 -26 -50 -58 0
-3 -35 -42 -44 0
-3 -35 -42 -50 0
-3 -35 -42 -58 0
-3 -35 -44 -50 0
-3 -35 -44 -58 0
-3 -35 -50 -58 0
-3 -42 -44 -50 0
-3 -42 -44 -58 0
-3 -42 -50 -58 0
-3 -44 -50 -58 0
-9 -18 -26 -35 0
-9 -18 -26 -42 0
-9 -18 -26 -44 0
-9 -18 -26 -50 0
-9 -18 -26 -58 0
-9 -18 -35 -42 0
-9 -18 -35 -44 0
-9 -18 -35 -50 0
-9 -18 -35 -58 0
-9 -18 -42 -44 0
-9 -18 -42 -50 0
-9 -18 -42 -58 0
-9 -18 -44 -50 0
-9 -18 -44 -58 0
-9 -18 -50 -58 0
-9 -26 -35 -42 0
-9 -26 -35 -44 0
-9 -26 -35 -50 0
-9 -26 -35 -58 0
-9 -26 -42 -44 0
-9 -26 -42 -50 0
-9 -26 -42 -58 0
-9 -26 -44 -50 0
-9 -26 -44 -58 0
-9 -26 -50 -58 0
-9 -35 -42 -44 0
-9 -35 -42 -50 0
-9 -35 -42 -58 0
-9 -35 -44 -50 0
-9 -35 -44 -58 0
-9 -35 -50 -58 0
-9 -42 -44 -50 0
-9 -42 -44 -58 0
-9 -42 -50 -58 0
-9 -44 -50 -58 0
-18 -26 -35 -42 0
-18 -26 -35 -44 0
-18 -26 -35 -50 0
-18 -26 -35 -58 0
-18 -26 -42 -44 0
-18 -26 -42 -50 0
-18 -26 -42 -58 0
-18 -26 -44 -50 0
-18 -26 -44 -58 0
-18 -26 -50 -58 0
-18 -35 -42 -44 0
-18 -35 -42 -50 0
-18 -35 -42 -58 0
-18 -35 -44 -50 0
-18 -35 -44 -58 0
-18 -35 -50 -58 0
-18 -42 -44 -50 0
-18 -42 -44 -58 0
-18 -42 -50 -58 0
-18 -44 -50 -58 0
-26 -35 -42 -44 0
-26 -35 -42 -50 0
-26 -35 -42 -58 0
-26 -35 -44 -50 0
-26 -35 -44 -58 0
-26 -35 -50 -58 0
-26 -42 -44 -50 0
-26 -42 -44 -58 0
-26 -42 -50 -58 0
-26 -44 -50 -58 0
-35 -42 -44 -50 0
-35 -42 -44 -58 0
-35 -42 -50 -58 0
-35 -44 -50 -58 0
-42 -44 -50 -58 0
-3 -11 -15 -25 0
-3 -11 -15 -35 0
-3 -11 -15 -41 0
-3 -11 -15 -45 0
-3 -11 -15 -51 0
-3 -11 -15 -59 0
-3 -11 -25 -35 0
-3 -11 -25 -41 0
-3 -11 -25 -45 0
-3 -11 -25 -51 0
-3 -11 -25 -59 0
-3 -11 -35 -41 0
-3 -11 -35 -45 0
-3 -11 -35 -51 0
-3 -11 -35 -59 0
-3 -11 -41 -45 0
-3 -11 -41 -51 0
-3 -11 -41 -59 0
-3 -11 -45 -51 0
-3 -11 -45 -59 0
-3 -11 -51 -59 0
-3 -15 -25 -35 0
-3 -15 -25 -41 0
-3 -15 -25 -45 0
-3 -15 -25 -51 0
-3 -15 -25 -59 0
-3 -15 -35 -41 0
-3 -15 -35 -45 0
-3 -15 -35 -51 0
-3 -15 -35 -59 0
-3 -15 -41 -45 0
-3 -15 -41 -51 0
-3 -15 -41 -59 0
-3 -15 -45 -51 0
-3 -15 -45 -59 0
-3 -15 -51 -59 0
-3 -25 -35 -41 0
-3 -25 -35 -45 0
-3 -25 -35 -51 0
-3 -25 -35 -59 0
-3 -25 -41 -45 0
-3 -25 -41 -51 0
-3 -25 -41 -59 0
-3 -25 -45 -51 0
-3 -25 -45 -59 0
-3 -25 -51 -59 0
-3 -35 -41 -45 0
-3 -35 -41 -51 0
-3 -35 -41 -59 0
-3 -35 -45 -51 0
-3 -35 -45 -59 0
-3 -35 -51 -59 0
-3 -41 -45 -51 0
-3 -41 -45 -59 0
-3 -41 -51 -59 0
-3 -45 -51 -59 0
-11 -15 -25 -35 0
-11 -15 -25 -41 0
-11 -15 -25 -45 0
-11 -15 -25 -51 0
-11 -15 -25 -59 0
-11 -15 -35 -41 0
-11 -15 -35 -45 0
-11 -15 -35 -51 0
-11 -15 -35 -59 0
-11 -15 -41 -45 0
-11 -15 -41 -51 0
-11 -15 -41 -59 0
-11 -15 -45 -51 0
-11 -15 -45 -59 0
-11 -15 -51 -59 0
-11 -25 -35 -41 0
-11 -25 -35 -45 0
-11 -25 -35 -51 0
-11 -25 -35 -59 0
-11 -25 -41 -45 0
-11 -25 -41 -51 0
-11 -25 -41 -59 0
-11 -25 -45 -51 0
-11 -25 -45 -59 0
-11 -25 -51 -59 0
-11 -35 -41 -45 0
-11 -35 -41 -51 0
-11 -35 -41 -59 0
-11 -35 -45 -51 0
-11 -35 -45 -59 0
-11 -35 -51 -59 0
-11 -41 -45 -51 0
-11 -41 -45 -59 0
-11 -41 -51 -59 0
-11 -45 -51 -59 0
-15 -25 -35 -41 0
-15 -25 -35 -45 0
-15 -25 -35 -51 0
-15 -25 -35 -59 0
-15 -25 -41 -45 0
-15 -25 -41 -51 0
-15 -25 -41 -59 0
-15 -25 -45 -51 0
-15 -25 -45 -59 0
-15 -25 -51 -59 0
-15 -35 -41 -45 0
-15 -35 -41 -51 0
-15 -35 -41 -59 0
-15 -35 -45 -51 0
-15 -35 -45 -59 0
-15 -35 -51 -59 0
-15 -41 -45 -51 0
-15 -41 -45 -59 0
-15 -41 -51 -59 0
-15 -45 -51 -59 0
-25 -35 -41 -45 0
-25 -35 -41 -51 0
-25 -35 -41 -59 0
-25 -35 -45 -51 0
-25 -35 -45 -59 0
-25 -35 -51 -59 0
-25 -41 -45 -51 0
-25 -41 -45 -59 0
-25 -41 -51 -59 0
-25 -45 -51 -59 0
-35 -41 -45 -51 0
-35 -41 -45 -59 0
-35 -41 -51 -59 0
-35 -45 -51 -59 0
-41 -45 -51 -59 0
-6 -12 -15 -24 0
-6 -12 -15 -29 0
-6 -12 -15 -38 0
-6 -12 -15 -48 0
-6 -12 -15 -52 0
-6 -12 -15 -60 0
-6 -12 -24 -29 0
-6 -12 -24 -38 0
-6 -12 -24 -48 0
-6 -12 -24 -52 0
-6 -12 -24 -60 0
-6 -12 -29 -38 0
-6 -12 -29 -48 0
-6 -12 -29 -52 0
-6 -12 -29 -60 0
-6 -12 -38 -48 0
-6 -12 -38 -52 0
-6 -12 -38 -60 0
-6 -12 -48 -52 0
-6 -12 -48 -60 0
-6 -12 -52 -60 0
-6 -15 -24 -29 0
-6 -15 -24 -38 0
-6 -15 -24 -48 0
-6 -15 -24 -52 0
-6 -15 -24 -60 0
-6 -15 -29 -38 0
-6 -15 -29 -48 0
-6 -15 -29 -52 0
-6 -15 -29 -60 0
-6 -15 -38 -48 0
-6 -15 -38 -52 0
-6 -15 -38 -60 0
-6 -15 -48 -52 0
-6 -15 -48 -60 0
-6 -15 -52 -60 0
-6 -24 -29 -38 0
-6 -24 -29 -48 0
-6 -24 -29 -52 0
-6 -24 -29 -60 0
-6 -24 -38 -48 0
-6 -24 -38 -52 0
-6 -24 -38 -60 0
-6 -24 -48 -52 0
-6 -24 -48 -60 0
-6 -24 -52 -60 0
-6 -29 -38 -48 0
-6 -29 -38 -52 0
-6 -29 -38 -60 0
-6 -29 -48 -52 0
-6 -29 -48 -60 0
-6 -29 -52 -60 0
-6 -38 -48 -52 0
-6 -38 -48 -60 0
-6 -38 -52 -60 0
-6 -48 -52 -60 0
-12 -15 -24 -29 0
-12 -15 -24 -38 0
-12 -15 -24 -48 0
-12 -15 -24 -52 0
-12 -15 -24 -60 0
-12 -15 -29 -38 0
-12 -15 -29 -48 0
-12 -15 -29 -52 0
-12 -15 -29 -60 0
-12 -15 -38 -48 0
-12 -15 -38 -52 0
-12 -15 -38 -60 0
-12 -15 -48 -52 0
-12 -15 -48 -60 0
-12 -15 -52 -60 0
-12 -24 -29 -38 0
-12 -24 -29 -48 0
-12 -24 -29 -52 0
-12 -24 -29 -60 0
-12 -24 -38 -48 0
-12 -24 -38 -52 0
-12 -24 -38 -60 0
-12 -24 -48 -52 0
-12 -24 -48 -60 0
-12 -24 -52 -60 0
-12 -29 -38 -48 0
-12 -29 -38 -52 0
-12 -29 -38 -60 0
-12 -29 -48 -52 0
-12 -29 -48 -60 0
-12 -29 -52 -60 0
-12 -38 -48 -52 0
-12 -38 -48 -60 0
-12 -38 -52 -60 0
-12 -48 -52 -60 0
-15 -24 -29 -38 0
-15 -24 -29 -48 0
-15 -24 -29 -52 0
-15 -24 -29 -60 0
-15 -24 -38 -48 0
-15 -24 -38 -52 0
-15 -24 -38 -60 0
-15 -24 -48 -52 0
-15 -24 -48 -60 0
-15 -24 -52 -60 0
-15 -29 -38 -48 0
-15 -29 -38 -52 0
-15 -29 -38 -60 0
-15 -29 -48 -52 0
-15 -29 -48 -60 0
-15 -29 -52 -60 0
-15 -38 -48 -52 0
-15 -38 -48 -60 0
-15 -38 -52 -60 0
-15 -48 -52 -60 0
-24 -29 -38 -48 0
-24 -29 -38 -52 0
-24 -29 -38 -60 0
-24 -29 -48 -52 0
-24 -29 -48 -60 0
-24 -29 -52 -60 0
-24 -38 -48 -52 0
-24 -38 -48 -60 0
-24 -38 -52 -60 0
-24 -48 -52 -60 0
-29 -38 -48 -52 0
-29 -38 -48 -60 0
-29 -38 -52 -60 0
-29 -48 -52 -60 0
-38 -48 -52 -60 0
-5 -9 -18 -27 0
-5 -9 -18 -33 0
-5 -9 -18 -38 0
-5 -9 -18 -44 0
-5 -9 -18 -55 0
-5 -9 -18 -59 0
-5 -9 -27 -33 0
-5 -9 -27 -38 0
-5 -9 -27 -44 0
-5 -9 -27 -55 0
-5 -9 -27 -59 0
-5 -9 -33 -38 0
-5 -9 -33 -44 0
-5 -9 -33 -55 0
-5 -9 -33 -59 0
-5 -9 -38 -44 0
-5 -9 -38 -55 0
-5 -9 -38 -59 0
-5 -9 -44 -55 0
-5 -9 -44 -59 0
-5 -9 -55 -59 0
-5 -18 -27 -33 0
-5 -18 -27 -38 0
-5 -18 -27 -44 0
-5 -18 -27 -55 0
-5 -18 -27 -59 0
-5 -18 -33 -38 0
-5 -18 -33 -44 0
-5 -18 -33 -55 0
-5 -18 -33 -59 0
-5 -18 -38 -44 0
-5 -18 -38 -55 0
-5 -18 -38 -59 0
-5 -18 -44 -55 0
-5 -18 -44 -59 0
-5 -18 -55 -59 0
-5 -27 -33 -38 0
-5 -27 -33 -44 0
-5 -27 -33 -55 0
-5 -27 -33 -59 0
-5 -27 -38 -44 0
-5 -27 -38 -55 0
-5 -27 -38 -59 0
-5 -27 -44 -55 0
-5 -27 -44 -59 0
-5 -27 -55 -59 0
-5 -33 -38 -44 0
-5 -33 -38 -55 0
-5 -33 -38 -59 0
-5 -33 -44 -55 0
-5 -33 -44 -59 0
-5 -33 -55 -59 0
-5 -38 -44 -55 0
-5 -38 -44 -59 0
-5 -38 -55 -59 0
-5 -44 -55 -59 0
-9 -18 -27 -33 0
-9 -18 -27 -38 0
-9 -18 -27 -44 0
-9 -18 -27 -55 0
-9 -18 -27 -59 0
-9 -18 -33 -38 0
-9 -18 -33 -44 0
-9 -18 -33 -55 0
-9 -18 -33 -59 0
-9 -18 -38 -44 0
-9 -18 -38 -55 0
-9 -18 -38 -59 0
-9 -18 -44 -55 0
-9 -18 -44 -59 0
-9 -18 -55 -59 0
-9 -27 -33 -38 0
-9 -27 -33 -44 0
-9 -27 -33 -55 0
-9 -27 -33 -59 0
-9 -27 -38 -44 0
-9 -27 -38 -55 0
-9 -27 -38 -59 0
-9 -27 -44 -55 0
-9 -27 -44 -59 0
-9 -27 -55 -59 0
-9 -33 -38 -44 0
-9 -33 -38 -55 0
-9 -33 -38 -59 0
-9 -33 -44 -55 0
-9 -33 -44 -59 0
-9 -33 -55 -59 0
-9 -38 -44 -55 0
-9 -38 -44 -59 0
-9 -38 -55 -59 0
-9 -44 -55 -59 0
-18 -27 -33 -38 0
-18 -27 -33 -44 0
-18 -27 -33 -55 0
-18 -27 -33 -59 0
-18 -27 -38 -44 0
-18 -27 -38 -55 0
-18 -27 -38 -59 0
-18 -27 -44 -55 0
-18 -27 -44 -59 0
-18 -27 -55 -59 0
-18 -33 -38 -44 0
-18 -33 -38 -55 0
-18 -33 -38 -59 0
-18 -33 -44 -55 0
-18 -33 -44 -59 0
-18 -33 -55 -59 0
-18 -38 -44 -55 0
-18 -38 -44 -59 0
-18 -38 -55 -59 0
-18 -44 -55 -59 0
-27 -33 -38 -44 0
-27 -33 -38 -55 0
-27 -33 -38 -59 0
-27 -33 -44 -55 0
-27 -33 -44 -59 0
-27 -33 -55 -59 0
-27 -38 -44 -55 0
-27 -38 -44 -59 0
-27 -38 -55 -59 0
-27 -44 -55 -59 0
-33 -38 -44 -55 0
-33 -38 -44 -59 0
-33 -38 -55 -59 0
-33 -44 -55 -59 0
-38 -44 -55 -59 0
-7 -8 -19 -27 0
-7 -8 -19 -30 0
-7 -8 -19 -41 0
-7 -8 -19 -48 0
-7 -8 -19 -51 0
-7 -8 -19 -61 0
-7 -8 -27 -30 0
-7 -8 -27 -41 0
-7 -8 -27 -48 0
-7 -8 -27 -51 0
-7 -8 -27 -61 0
-7 -8 -30 -41 0
-7 -8 -30 -48 0
-7 -8 -30 -51 0
-7 -8 -30 -61 0
-7 -8 -41 -48 0
-7 -8 -41 -51 0
-7 -8 -41 -61 0
-7 -8 -48 -51 0
-7 -8 -48 -61 0
-7 -8 -51 -61 0
-7 -19 -27 -30 0
-7 -19 -27 -41 0
-7 -19 -27 -48 0
-7 -19 -27 -51 0
-7 -19 -27 -61 0
-7 -19 -30 -41 0
-7 -19 -30 -48 0
-7 -19 -30 -51 0
-7 -19 -30 -61 0
-7 -19 -41 -48 0
-7 -19 -41 -51 0
-7 -19 -41 -61 0
-7 -19 -48 -51 0
-7 -19 -48 -61 0
-7 -19 -51 -61 0
-7 -27 -30 -41 0
-7 -27 -30 -48 0
-7 -27 -30 -51 0
-7 -27 -30 -61 0
-7 -27 -41 -48 0
-7 -27 -41 -51 0
-7 -27 -41 -61 0
-7 -27 -48 -51 0
-7 -27 -48 -61 0
-7 -27 -51 -61 0
-7 -30 -41 -48 0
-7 -30 -41 -51 0
-7 -30 -41 -61 0
-7 -30 -48 -51 0
-7 -30 -48 -61 0
-7 -30 -51 -61 0
-7 -41 -48 -51 0
-7 -41 -48 -61 0
-7 -41 -51 -61 0
-7 -48 -51 -61 0
-8 -19 -27 -30 0
-8 -19 -27 -41 0
-8 -19 -27 -48 0
-8 -19 -27 -51 0
-8 -19 -27 -61 0
-8 -19 -30 -41 0
-8 -19 -30 -48 0
-8 -19 -30 -51 0
-8 -19 -30 -61 0
-8 -19 -41 -48 0
-8 -19 -41 -51 0
-8 -19 -41 -61 0
-8 -19 -48 -51 0
-8 -19 -48 -61 0
-8 -19 -51 -61 0
-8 -27 -30 -41 0
-8 -27 -30 -48 0
-8 -27 -30 -51 0
-8 -27 -30 -61 0
-8 -27 -41 -48 0
-8 -27 -41 -51 0
-8 -27 -41 -61 0
-8 -27 -48 -51 0
-8 -27 -48 -61 0
-8 -27 -51 -61 0
-8 -30 -41 -48 0
-8 -30 -41 -51 0
-8 -30 -41 -61 0
-8 -30 -48 -51 0
-8 -30 -48 -61 0
-8 -30 -51 -61 0
-8 -41 -48 -51 0
-8 -41 -48 -61 0
-8 -41 -51 -61 0
-8 -48 -51 -61 0
-19 -27 -30 -41 0
-19 -27 -30 -48 0
-19 -27 -30 -51 0
-19 -27 -30 -61 0
-19 -27 -41 -48 0
-19 -27 -41 -51 0
-19 -27 -41 -61 0
-19 -27 -48 -51 0
-19 -27 -48 -61 0
-19 -27 -51 -61 0
-19 -30 -41 -48 0
-19 -30 -41 -51 0
-19 -30 -41 -61 0
-19 -30 -48 -51 0
-19 -30 -48 -61 0
-19 -30 -51 -61 0
-19 -41 -48 -51 0
-19 -41 -48 -61 0
-19 -41 -51 -61 0
-19 -48 -51 -61 0
-27 -30 -41 -48 0
-27 -30 -41 -51 0
-27 -30 -41 -61 0
-27 -30 -48 -51 0
-27 -30 -48 -61 0
-27 -30 -51 -61 0
-27 -41 -48 -51 0
-27 -41 -48 -61 0
-27 -41 -51 -61 0
-27 -48 -51 -61 0
-30 -41 -48 -51 0
-30 -41 -48 -61 0
-30 -41 -51 -61 0
-30 -48 -51 -61 0
-41 -48 -51 -61 0
-1 -13 -21 -23 0
-1 -13 -21 -32 0
-1 -13 -21 -40 0
-1 -13 -21 -44 0
-1 -13 -21 -51 0
-1 -13 -21 -61 0
-1 -13 -23 -32 0
-1 -13 -23 -40 0
-1 -13 -23 -44 0
-1 -13 -23 -51 0
-1 -13 -23 -61 0
-1 -13 -32 -40 0
-1 -13 -32 -44 0
-1 -13 -32 -51 0
-1 -13 -32 -61 0
-1 -13 -40 -44 0
-1 -13 -40 -51 0
-1 -13 -40 -61 0
-1 -13 -44 -51 0
-1 -13 -44 -61 0
-1 -13 -51 -61 0
-1 -21 -23 -32 0
-1 -21 -23 -40 0
-1 -21 -23 -44 0
-1 -21 -23 -51 0
-1 -21 -23 -61 0
-1 -21 -32 -40 0
-1 -21 -32 -44 0
-1 -21 -32 -51 0
-1 -21 -32 -61 0
-1 -21 -40 -44 0
-1 -21 -40 -51 0
-1 -21 -40 -61 0
-1 -21 -44 -51 0
-1 -21 -44 -61 0
-1 -21 -51 -61 0
-1 -23 -32 -40 0
-1 -23 -32 -44 0
-1 -23 -32 -51 0
-1 -23 -32 -61 0
-1 -23 -40 -44 0
-1 -23 -40 -51 0
-1 -23 -40 -61 0
-1 -23 -44 -51 0
-1 -23 -44 -61 0
-1 -23 -51 -61 0
-1 -32 -40 -44 0
-1 -32 -40 -51 0
-1 -32 -40 -61 0
-1 -32 -44 -51 0
-1 -32 -44 -61 0
-1 -32 -51 -61 0
-1 -40 -44 -51 0
-1 -40 -44 -61 0
-1 -40 -51 -61 0
-1 -44 -51 -61 0
-13 -21 -23 -32 0
-13 -21 -23 -40 0
-13 -21 -23 -44 0
-13 -21 -23 -51 0
-13 -21 -23 -61 0
-13 -21 -32 -40 0
-13 -21 -32 -44 0
-13 -21 -32 -51 0
-13 -21 -32 -61 0
-13 -21 -40 -44 0
-13 -21 -40 -51 0
-13 -21 -40 -61 0
-13 -21 -44 -51 0
-13 -21 -44 -61 0
-13 -21 -51 -61 0
-13 -23 -32 -40 0
-13 -23 -32 -44 0
-13 -23 -32 -51 0
-13 -23 -32 -61 0
-13 -23 -40 -44 0
-13 -23 -40 -51 0
-13 -23 -40 -61 0
-13 -23 -44 -51 0
-13 -23 -44 -61 0
-13 -23 -51 -61 0
-13 -32 -40 -44 0
-13 -32 -40 -51 0
-13 -32 -40 -61 0
-13 -32 -44 -51 0
-13 -32 -44 -61 0
-13 -32 -51 -61 0
-13 -40 -44 -51 0
-13 -40 -44 -61 0
-13 -40 -51 -61 0
-13 -44 -51 -61 0
-21 -23 -32 -40 0
-21 -23 -32 -44 0
-21 -23 -32 -51 0
-21 -23 -32 -61 0
-21 -23 -40 -44 0
-21 -23 -40 -51 0
-21 -23 -40 -61 0
-21 -23 -44 -51 0
-21 -23 -44 -61 0
-21 -23 -51 -61 0
-21 -32 -40 -44 0
-21 -32 -40 -51 0
-21 -32 -40 -61 0
-21 -32 -44 -51 0
-21 -32 -44 -61 0
-21 -32 -51 -61 0
-21 -40 -44 -51 0
-21 -40 -44 -61 0
-21 -40 -51 -61 0
-21 -44 -51 -61 0
-23 -32 -40 -44 0
-23 -32 -40 -51 0
-23 -32 -40 -61 0
-23 -32 -44 -51 0
-23 -32 -44 -61 0
-23 -32 -51 -61 0
-23 -40 -44 -51 0
-23 -40 -44 -61 0
-23 -40 -51 -61 0
-23 -44 -51 -61 0
-32 -40 -44 -51 0
-32 -40 -44 -61 0
-32 -40 -51 -61 0
-32 -44 -51 -61 0
-40 -44 -51 -61 0
-3 -12 -16 -23 0
-3 -12 -16 -34 0
-3 -12 -16 -42 0
-3 -12 -16 -46 0
-3 -12 -16 -53 0
-3 -12 -16 -63 0
-3 -12 -23 -34 0
-3 -12 -23 -42 0
-3 -12 -23 -46 0
-3 -12 -23 -53 0
-3 -12 -23 -63 0
-3 -12 -34 -42 0
-3 -12 -34 -46 0
-3 -12 -34 -53 0
-3 -12 -34 -63 0
-3 -12 -42 -46 0
-3 -12 -42 -53 0
-3 -12 -42 -63 0
-3 -12 -46 -53 0
-3 -12 -46 -63 0
-3 -12 -53 -63 0
-3 -16 -23 -34 0
-3 -16 -23 -42 0
-3 -16 -23 -46 0
-3 -16 -23 -53 0
-3 -16 -23 -63 0
-3 -16 -34 -42 0
-3 -16 -34 -46 0
-3 -16 -34 -53 0
-3 -16 -34 -63 0
-3 -16 -42 -46 0
-3 -16 -42 -53 0
-3 -16 -42 -63 0
-3 -16 -46 -53 0
-3 -16 -46 -63 0
-3 -16 -53 -63 0
-3 -23 -34 -42 0
-3 -23 -34 -46 0
-3 -23 -34 -53 0
-3 -23 -34 -63 0
-3 -23 -42 -46 0
-3 -23 -42 -53 0
-3 -23 -42 -63 0
-3 -23 -46 -53 0
-3 -23 -46 -63 0
-3 -23 -53 -63 0
-3 -34 -42 -46 0
-3 -34 -42 -53 0
-3 -34 -42 -63 0
-3 -34 -46 -53 0
-3 -34 -46 -63 0
-3 -34 -53 -63 0
-3 -42 -46 -53 0
-3 -42 -46 -63 0
-3 -42 -53 -63 0
-3 -46 -53 -63 0
-12 -16 -23 -34 0
-12 -16 -23 -42 0
-12 -16 -23 -46 0
-12 -16 -23 -53 0
-12 -16 -23 -63 0
-12 -16 -34 -42 0
-12 -16 -34 -46 0
-12 -16 -34 -53 0
-12 -16 -34 -63 0
-12 -16 -42 -46 0
-12 -16 -42 -53 0
-12 -16 -42 -63 0
-12 -16 -46 -53 0
-12 -16 -46 -63 0
-12 -16 -53 -63 0
-12 -23 -34 -42 0
-12 -23 -34 -46 0
-12 -23 -34 -53 0
-12 -23 -34 -63 0
-12 -23 -42 -46 0
-12 -23 -42 -53 0
-12 -23 -42 -63 0
-12 -23 -46 -53 0
-12 -23 -46 -63 0
-12 -23 -53 -63 0
-12 -34 -42 -46 0
-12 -34 -42 -53 0
-12 -34 -42 -63 0
-12 -34 -46 -53 0
-12 -34 -46 -63 0
-12 -34 -53 -63 0
-12 -42 -46 -53 0
-12 -42 -46 -63 0
-12 -42 -53 -63 0
-12 -46 -53 -63 0
-16 -23 -34 -42 0
-16 -23 -34 -46 0
-16 -23 -34 -53 0
-16 -23 -34 -63 0
-16 -23 -42 -46 0
-16 -23 -42 -53 0
-16 -23 -42 -63 0
-16 -23 -46 -53 0
-16 -23 -46 -63 0
-16 -23 -53 -63 0
-16 -34 -42 -46 0
-16 -34 -42 -53 0
-16 -34 -42 -63 0
-16 -34 -46 -53 0
-16 -34 -46 -63 0
-16 -34 -53 -63 0
-16 -42 -46 -53 0
-16 -42 -46 -63 0
-16 -42 -53 -63 0
-16 -46 -53 -63 0
-23 -34 -42 -46 0
-23 -34 -42 -53 0
-23 -34 -42 -63 0
-23 -34 -46 -53 0
-23 -34 -46 -63 0
-23 -34 -53 -63 0
-23 -42 -46 -53 0
-23 -42 -46 -63 0
-23 -42 -53 -63 0
-23 -46 -53 -63 0
-34 -42 -46 -53 0
-34 -42 -46 -63 0
-34 -42 -53 -63 0
-34 -46 -53 -63 0
-42 -46 -53 -63 0
-7 -8 -21 -24 0
-7 -8 -21 -32 0
-7 -8 -21 -36 0
-7 -8 -21 -44 0
-7 -8 -21 -54 0
-7 -8 -21 -60 0
-7 -8 -24 -32 0
-7 -8 -24 -36 0
-7 -8 -24 -44 0
-7 -8 -24 -54 0
-7 -8 -24 -60 0
-7 -8 -32 -36 0
-7 -8 -32 -44 0
-7 -8 -32 -54 0
-7 -8 -32 -60 0
-7 -8 -36 -44 0
-7 -8 -36 -54 0
-7 -8 -36 -60 0
-7 -8 -44 -54 0
-7 -8 -44 -60 0
-7 -8 -54 -60 0
-7 -21 -24 -32 0
-7 -21 -24 -36 0
-7 -21 -24 -44 0
-7 -21 -24 -54 0
-7 -21 -24 -60 0
-7 -21 -32 -36 0
-7 -21 -32 -44 0
-7 -21 -32 -54 0
-7 -21 -32 -60 0
-7 -21 -36 -44 0
-7 -21 -36 -54 0
-7 -21 -36 -60 0
-7 -21 -44 -54 0
-7 -21 -44 -60 0
-7 -21 -54 -60 0
-7 -24 -32 -36 0
-7 -24 -32 -44 0
-7 -24 -32 -54 0
-7 -24 -32 -60 0
-7 -24 -36 -44 0
-7 -24 -36 -54 0
-7 -24 -36 -60 0
-7 -24 -44 -54 0
-7 -24 -44 -60 0
-7 -24 -54 -60 0
-7 -32 -36 -44 0
-7 -32 -36 -54 0
-7 -32 -36 -60 0
-7 -32 -44 -54 0
-7 -32 -44 -60 0
-7 -32 -54 -60 0
-7 -36 -44 -54 0
-7 -36 -44 -60 0
-7 -36 -54 -60 0
-7 -44 -54 -60 0
-8 -21 -24 -32 0
-8 -21 -24 -36 0
-8 -21 -24 -44 0
-8 -21 -24 -54 0
-8 -21 -24 -60 0
-8 -21 -32 -36 0
-8 -21 -32 -44 0
-8 -21 -32 -54 0
-8 -21 -32 -60 0
-8 -21 -36 -44 0
-8 -21 -36 -54 0
-8 -21 -36 -60 0
-8 -21 -44 -54 0
-8 -21 -44 -60 0
-8 -21 -54 -60 0
-8 -24 -32 -36 0
-8 -24 -32 -44 0
-8 -24 -32 -54 0
-8 -24 -32 -60 0
-8 -24 -36 -44 0
-8 -24 -36 -54 0
-8 -24 -36 -60 0
-8 -24 -44 -54 0
-8 -24 -44 -60 0
-8 -24 -54 -60 0
-8 -32 -36 -44 0
-8 -32 -36 -54 0
-8 -32 -36 -60 0
-8 -32 -44 -54 0
-8 -32 -44 -60 0
-8 -32 -54 -60 0
-8 -36 -44 -54 0
-8 -36 -44 -60 0
-8 -36 -54 -60 0
-8 -44 -54 -60 0
-21 -24 -32 -36 0
-21 -24 -32 -44 0
-21 -24 -32 -54 0
-21 -24 -32 -60 0
-21 -24 -36 -44 0
-21 -24 -36 -54 0
-21 -24 -36 -60 0
-21 -24 -44 -54 0
-21 -24 -44 -60 0
-21 -24 -54 -60 0
-21 -32 -36 -44 0
-21 -32 -36 -54 0
-21 -32 -36 -60 0
-21 -32 -44 -54 0
-21 -32 -44 -60 0
-21 -32 -54 -60 0
-21 -36 -44 -54 0
-21 -36 -44 -60 0
-21 -36 -54 -60 0
-21 -44 -54 -60 0
-24 -32 -36 -44 0
-24 -32 -36 -54 0
-24 -32 -36 -60 0
-24 -32 -44 -54 0
-24 -32 -44 -60 0
-24 -32 -54 -60 0
-24 -36 -44 -54 0
-24 -36 -44 -60 0
-24 -36 -54 -60 0
-24 -44 -54 -60 0
-32 -36 -44 -54 0
-32 -36 -44 -60 0
-32 -36 -54 -60 0
-32 -44 -54 -60 0
-36 -44 -54 -60 0
-5 -8 -17 -24 0
-5 -8 -17 -30 0
-5 -8 -17 -39 0
-5 -8 -17 -45 0
-5 -8 -17 -56 0
-5 -8 -17 -59 0
-5 -8 -24 -30 0
-5 -8 -24 -39 0
-5 -8 -24 -45 0
-5 -8 -24 -56 0
-5 -8 -24 -59 0
-5 -8 -30 -39 0
-5 -8 -30 -45 0
-5 -8 -30 -56 0
-5 -8 -30 -59 0
-5 -8 -39 -45 0
-5 -8 -39 -56 0
-5 -8 -39 -59 0
-5 -8 -45 -56 0
-5 -8 -45 -59 0
-5 -8 -56 -59 0
-5 -17 -24 -30 0
-5 -17 -24 -39 0
-5 -17 -24 -45 0
-5 -17 -24 -56 0
-5 -17 -24 -59 0
-5 -17 -30 -39 0
-5 -17 -30 -45 0
-5 -17 -30 -56 0
-5 -17 -30 -59 0
-5 -17 -39 -45 0
-5 -17 -39 -56 0
-5 -17 -39 -59 0
-5 -17 -45 -56 0
-5 -17 -45 -59 0
-5 -17 -56 -59 0
-5 -24 -30 -39 0
-5 -24 -30 -45 0
-5 -24 -30 -56 0
-5 -24 -30 -59 0
-5 -24 -39 -45 0
-5 -24 -39 -56 0
-5 -24 -39 -59 0
-5 -24 -45 -56 0
-5 -24 -45 -59 0
-5 -24 -56 -59 0
-5 -30 -39 -45 0
-5 -30 -39 -56 0
-5 -30 -39 -59 0
-5 -30 -45 -56 0
-5 -30 -45 -59 0
-5 -30 -56 -59 0
-5 -39 -45 -56 0
-5 -39 -45 -59 0
-5 -39 -56 -59 0
-5 -45 -56 -59 0
-8 -17 -24 -30 0
-8 -17 -24 -39 0
-8 -17 -24 -45 0
-8 -17 -24 -56 0
-8 -17 -24 -59 0
-8 -17 -30 -39 0
-8 -17 -30 -45 0
-8 -17 -30 -56 0
-8 -17 -30 -59 0
-8 -17 -39 -45 0
-8 -17 -39 -56 0
-8 -17 -39 -59 0
-8 -17 -45 -56 0
-8 -17 -45 -59 0
-8 -17 -56 -59 0
-8 -24 -30 -39 0
-8 -24 -30 -45 0
-8 -24 -30 -56 0
-8 -24 -30 -59 0
-8 -24 -39 -45 0
-8 -24 -39 -56 0
-8 -24 -39 -59 0
-8 -24 -45 -56 0
-8 -24 -45 -59 0
-8 -24 -56 -59 0
-8 -30 -39 -45 0
-8 -30 -39 -56 0
-8 -30 -39 -59 0
-8 -30 -45 -56 0
-8 -30 -45 -59 0
-8 -30 -56 -59 0
-8 -39 -45 -56 0
-8 -39 -45 -59 0
-8 -39 -56 -59 0
-8 -45 -56 -59 0
-17 -24 -30 -39 0
-17 -24 -30 -45 0
-17 -24 -30 -56 0
-17 -24 -30 -59 0
-17 -24 -39 -45 0
-17 -24 -39 -56 0
-17 -24 -39 -59 0
-17 -24 -45 -56 0
-17 -24 -45 -59 0
-17 -24 -56 -59 0
-17 -30 -39 -45 0
-17 -30 -39 -56 0
-17 -30 -39 -59 0
-17 -30 -45 -56 0
-17 -30 -45 -59 0
-17 -30 -56 -59 0
-17 -39 -45 -56 0
-17 -39 -45 -59 0
-17 -39 -56 -59 0
-17 -45 -56 -59 0
-24 -30 -39 -45 0
-24 -30 -39 -56 0
-24 -30 -39 -59 0
-24 -30 -45 -56 0
-24 -30 -45 -59 0
-24 -30 -56 -59 0
-24 -39 -45 -56 0
-24 -39 -45 -59 0
-24 -39 -56 -59 0
-24 -45 -56 -59 0
-30 -39 -45 -56 0
-30 -39 -45 -59 0
-30 -39 -56 -59 0
-30 -45 -56 -59 0
-39 -45 -56 -59 0
-7 -14 -20 -23 0
-7 -14 -20 -32 0
-7 -14 -20 -38 0
-7 -14 -20 -48 0
-7 -14 -20 -51 0
-7 -14 -20 -62 0
-7 -14 -23 -32 0
-7 -14 -23 -38 0
-7 -14 -23 -48 0
-7 -14 -23 -51 0
-7 -14 -23 -62 0
-7 -14 -32 -38 0
-7 -14 -32 -48 0
-7 -14 -32 -51 0
-7 -14 -32 -62 0
-7 -14 -38 -48 0
-7 -14 -38 -51 0
-7 -14 -38 -62 0
-7 -14 -48 -51 0
-7 -14 -48 -62 0
-7 -14 -51 -62 0
-7 -20 -23 -32 0
-7 -20 -23 -38 0
-7 -20 -23 -48 0
-7 -20 -23 -51 0
-7 -20 -23 -62 0
-7 -20 -32 -38 0
-7 -20 -32 -48 0
-7 -20 -32 -51 0
-7 -20 -32 -62 0
-7 -20 -38 -48 0
-7 -20 -38 -51 0
-7 -20 -38 -62 0
-7 -20 -48 -51 0
-7 -20 -48 -62 0
-7 -20 -51 -62 0
-7 -23 -32 -38 0
-7 -23 -32 -48 0
-7 -23 -32 -51 0
-7 -23 -32 -62 0
-7 -23 -38 -48 0
-7 -23 -38 -51 0
-7 -23 -38 -62 0
-7 -23 -48 -51 0
-7 -23 -48 -62 0
-7 -23 -51 -62 0
-7 -32 -38 -48 0
-7 -32 -38 -51 0
-7 -32 -38 -62 0
-7 -32 -48 -51 0
-7 -32 -48 -62 0
-7 -32 -51 -62 0
-7 -38 -48 -51 0
-7 -38 -48 -62 0
-7 -38 -51 -62 0
-7 -48 -51 -62 0
-14 -20 -23 -32 0
-14 -20 -23 -38 0
-14 -20 -23 -48 0
-14 -20 -23 -51 0
-14 -20 -23 -62 0
-14 -20 -32 -38 0
-14 -20 -32 -48 0
-14 -20 -32 -51 0
-14 -20 -32 -62 0
-14 -20 -38 -48 0
-14 -20 -38 -51 0
-14 -20 -38 -62 0
-14 -20 -48 -51 0
-14 -20 -48 -62 0
-14 -20 -51 -62 0
-14 -23 -32 -38 0
-14 -23 -32 -48 0
-14 -23 -32 -51 0
-14 -23 -32 -62 0
-14 -23 -38 -48 0
-14 -23 -38 -51 0
-14 -23 -38 -62 0
-14 -23 -48 -51 0
-14 -23 -48 -62 0
-14 -23 -51 -62 0
-14 -32 -38 -48 0
-14 -32 -38 -51 0
-14 -32 -38 -62 0
-14 -32 -48 -51 0
-14 -32 -48 -62 0
-14 -32 -51 -62 0
-14 -38 -48 -51 0
-14 -38 -48 -62 0
-14 -38 -51 -62 0
-14 -48 -51 -62 0
-20 -23 -32 -38 0
-20 -23 -32 -48 0
-20 -23 -32 -51 0
-20 -23 -32 -62 0
-20 -23 -38 -48 0
-20 -23 -38 -51 0
-20 -23 -38 -62 0
-20 -23 -48 -51 0
-20 -23 -48 -62 0
-20 -23 -51 -62 0
-20 -32 -38 -48 0
-20 -32 -38 -51 0
-20 -32 -38 -62 0
-20 -32 -48 -51 0
-20 -32 -48 -62 0
-20 -32 -51 -62 0
-20 -38 -48 -51 0
-20 -38 -48 -62 0
-20 -38 -51 -62 0
-20 -48 -51 -62 0
-23 -32 -38 -48 0
-23 -32 -38 -51 0
-23 -32 -38 -62 0
-23 -32 -48 -51 0
-23 -32 -48 -62 0
-23 -32 -51 -62 0
-23 -38 -48 -51 0
-23 -38 -48 -62 0
-23 -38 -51 -62 0
-23 -48 -51 -62 0
-32 -38 -48 -51 0
-32 -38 -48 -62 0
-32 -38 -51 -62 0
-32 -48 -51 -62 0
-38 -48 -51 -62 0
-1 -9 -15 -23 0
-1 -9 -15 -29 0
-1 -9 -15 -41 0
-1 -9 -15 -45 0
-1 -9 -15 -50 0
-1 -9 -15 -57 0
-1 -9 -23 -29 0
-1 -9 -23 -41 0
-1 -9 -23 -45 0
-1 -9 -23 -50 0
-1 -9 -23 -57 0
-1 -9 -29 -41 0
-1 -9 -29 -45 0
-1 -9 -29 -50 0
-1 -9 -29 -57 0
-1 -9 -41 -45 0
-1 -9 -41 -50 0
-1 -9 -41 -57 0
-1 -9 -45 -50 0
-1 -9 -45 -57 0
-1 -9 -50 -57 0
-1 -15 -23 -29 0
-1 -15 -23 -41 0
-1 -15 -23 -45 0
-1 -15 -23 -50 0
-1 -15 -23 -57 0
-1 -15 -29 -41 0
-1 -15 -29 -45 0
-1 -15 -29 -50 0
-1 -15 -29 -57 0
-1 -15 -41 -45 0
-1 -15 -41 -50 0
-1 -15 -41 -57 0
-1 -15 -45 -50 0
-1 -15 -45 -57 0
-1 -15 -50 -57 0
-1 -23 -29 -41 0
-1 -23 -29 -45 0
-1 -23 -29 -50 0
-1 -23 -29 -57 0
-1 -23 -41 -45 0
-1 -23 -41 -50 0
-1 -23 -41 -57 0
-1 -23 -45 -50 0
-1 -23 -45 -57 0
-1 -23 -50 -57 0
-1 -29 -41 -45 0
-1 -29 -41 -50 0
-1 -29 -41 -57 0
-1 -29 -45 -50 0
-1 -29 -45 -57 0
-1 -29 -50 -57 0
-1 -41 -45 -50 0
-1 -41 -45 -57 0
-1 -41 -50 -57 0
-1 -45 -50 -57 0
-9 -15 -23 -29 0
-9 -15 -23 -41 0
-9 -15 -23 -45 0
-9 -15 -23 -50 0
-9 -15 -23 -57 0
-9 -15 -29 -41 0
-9 -15 -29 -45 0
-9 -15 -29 -50 0
-9 -15 -29 -57 0
-9 -15 -41 -45 0
-9 -15 -41 -50 0
-9 -15 -41 -57 0
-9 -15 -45 -50 0
-9 -15 -45 -57 0
-9 -15 -50 -57 0
-9 -23 -29 -41 0
-9 -23 -29 -45 0
-9 -23 -29 -50 0
-9 -23 -29 -57 0
-9 -23 -41 -45 0
-9 -23 -41 -50 0
-9 -23 -41 -57 0
-9 -23 -45 -50 0
-9 -23 -45 -57 0
-9 -23 -50 -57 0
-9 -29 -41 -45 0
-9 -29 -41 -50 0
-9 -29 -41 -57 0
-9 -29 -45 -50 0
-9 -29 -45 -57 0
-9 -29 -50 -57 0
-9 -41 -45 -50 0
-9 -41 -45 -57 0
-9 -41 -50 -57 0
-9 -45 -50 -57 0
-15 -23 -29 -41 0
-15 -23 -29 -45 0
-15 -23 -29 -50 0
-15 -23 -29 -57 0
-15 -23 -41 -45 0
-15 -23 -41 -50 0
-15 -23 -41 -57 0
-15 -23 -45 -50 0
-15 -23 -45 -57 0
-15 -23 -50 -57 0
-15 -29 -41 -45 0
-15 -29 -41 -50 0
-15 -29 -41 -57 0
-15 -29 -45 -50 0
-15 -29 -45 -57 0
-15 -29 -50 -57 0
-15 -41 -45 -50 0
-15 -41 -45 -57 0
-15 -41 -50 -57 0
-15 -45 -50 -57 0
-23 -29 -41 -45 0
-23 -29 -41 -50 0
-23 -29 -41 -57 0
-23 -29 -45 -50 0
-23 -29 -45 -57 0
-23 -29 -50 -57 0
-23 -41 -45 -50 0
-23 -41 -45 -57 0
-23 -41 -50 -57 0
-23 -45 -50 -57 0
-29 -41 -45 -50 0
-29 -41 -45 -57 0
-29 -41 -50 -57 0
-29 -45 -50 -57 0
-41 -45 -50 -57 0
-1 -14 -18 -24 0
-1 -14 -18 -33 0
-1 -14 -18 -42 0
-1 -14 -18 -45 0
-1 -14 -18 -50 0
-1 -14 -18 -59 0
-1 -14 -24 -33 0
-1 -14 -24 -42 0
-1 -14 -24 -45 0
-1 -14 -24 -50 0
-1 -14 -24 -59 0
-1 -14 -33 -42 0
-1 -14 -33 -45 0
-1 -14 -33 -50 0
-1 -14 -33 -59 0
-1 -14 -42 -45 0
-1 -14 -42 -50 0
-1 -14 -42 -59 0
-1 -14 -45 -50 0
-1 -14 -45 -59 0
-1 -14 -50 -59 0
-1 -18 -24 -33 0
-1 -18 -24 -42 0
-1 -18 -24 -45 0
-1 -18 -24 -50 0
-1 -18 -24 -59 0
-1 -18 -33 -42 0
-1 -18 -33 -45 0
-1 -18 -33 -50 0
-1 -18 -33 -59 0
-1 -18 -42 -45 0
-1 -18 -42 -50 0
-1 -18 -42 -59 0
-1 -18 -45 -50 0
-1 -18 -45 -59 0
-1 -18 -50 -59 0
-1 -24 -33 -42 0
-1 -24 -33 -45 0
-1 -24 -33 -50 0
-1 -24 -33 -59 0
-1 -24 -42 -45 0
-1 -24 -42 -50 0
-1 -24 -42 -59 0
-1 -24 -45 -50 0
-1 -24 -45 -59 0
-1 -24 -50 -59 0
-1 -33 -42 -45 0
-1 -33 -42 -50 0
-1 -33 -42 -59 0
-1 -33 -45 -50 0
-1 -33 -45 -59 0
-1 -33 -50 -59 0
-1 -42 -45 -50 0
-1 -42 -45 -59 0
-1 -42 -50 -59 0
-1 -45 -50 -59 0
-14 -18 -24 -33 0
-14 -18 -24 -42 0
-14 -18 -24 -45 0
-14 -18 -24 -50 0
-14 -18 -24 -59 0
-14 -18 -33 -42 0
-14 -18 -33 -45 0
-14 -18 -33 -50 0
-14 -18 -33 -59 0
-14 -18 -42 -45 0
-14 -18 -42 -50 0
-14 -18 -42 -59 0
-14 -18 -45 -50 0
-14 -18 -45 -59 0
-14 -18 -50 -59 0
-14 -24 -33 -42 0
-14 -24 -33 -45 0
-14 -24 -33 -50 0
-14 -24 -33 -59 0
-14 -24 -42 -45 0
-14 -24 -42 -50 0
-14 -24 -42 -59 0
-14 -24 -45 -50 0
-14 -24 -45 -59 0
-14 -24 -50 -59 0
-14 -33 -42 -45 0
-14 -33 -42 -50 0
-14 -33 -42 -59 0
-14 -33 -45 -50 0
-14 -33 -45 -59 0
-14 -33 -50 -59 0
-14 -42 -45 -50 0
-14 -42 -45 -59 0
-14 -42 -50 -59 0
-14 -45 -50 -59 0
-18 -24 -33 -42 0
-18 -24 -33 -45 0
-18 -24 -33 -50 0
-18 -24 -33 -59 0
-18 -24 -42 -45 0
-18 -24 -42 -50 0
-18 -24 -42 -59 0
-18 -24 -45 -50 0
-18 -24 -45 -59 0
-18 -24 -50 -59 0
-18 -33 -42 -45 0
-18 -33 -42 -50 0
-18 -33 -42 -59 0
-18 -33 -45 -50 0
-18 -33 -45 -59 0
-18 -33 -50 -59 0
-18 -42 -45 -50 0
-18 -42 -45 -59 0
-18 -42 -50 -59 0
-18 -45 -50 -59 0
-24 -33 -42 -45 0
-24 -33 -42 -50 0
-24 -33 -42 -59 0
-24 -33 -45 -50 0
-24 -33 -45 -59 0
-24 -33 -50 -59 0
-24 -42 -45 -50 0
-24 -42 -45 -59 0
-24 -42 -50 -59 0
-24 -45 -50 -59 0
-33 -42 -45 -50 0
-33 -42 -45 -59 0
-33 -42 -50 -59 0
-33 -45 -50 -59 0
-42 -45 -50 -59 0
-4 -14 -20 -23 0
-4 -14 -20 -35 0
-4 -14 -20 -41 0
-4 -14 -20 -48 0
-4 -14 -20 -55 0
-4 -14 -20 -59 0
-4 -14 -23 -35 0
-4 -14 -23 -41 0
-4 -14 -23 -48 0
-4 -14 -23 -55 0
-4 -14 -23 -59 0
-4 -14 -35 -41 0
-4 -14 -35 -48 0
-4 -14 -35 -55 0
-4 -14 -35 -59 0
-4 -14 -41 -48 0
-4 -14 -41 -55 0
-4 -14 -41 -59 0
-4 -14 -48 -55 0
-4 -14 -48 -59 0
-4 -14 -55 -59 0
-4 -20 -23 -35 0
-4 -20 -23 -41 0
-4 -20 -23 -48 0
-4 -20 -23 -55 0
-4 -20 -23 -59 0
-4 -20 -35 -41 0
-4 -20 -35 -48 0
-4 -20 -35 -55 0
-4 -20 -35 -59 0
-4 -20 -41 -48 0
-4 -20 -41 -55 0
-4 -20 -41 -59 0
-4 -20 -48 -55 0
-4 -20 -48 -59 0
-4 -20 -55 -59 0
-4 -23 -35 -41 0
-4 -23 -35 -48 0
-4 -23 -35 -55 0
-4 -23 -35 -59 0
-4 -23 -41 -48 0
-4 -23 -41 -55 0
-4 -23 -41 -59 0
-4 -23 -48 -55 0
-4 -23 -48 -59 0
-4 -23 -55 -59 0
-4 -35 -41 -48 0
-4 -35 -41 -55 0
-4 -35 -41 -59 0
-4 -35 -48 -55 0
-4 -35 -48 -59 0
-4 -35 -55 -59 0
-4 -41 -48 -55 0
-4 -41 -48 -59 0
-4 -41 -55 -59 0
-4 -48 -55 -59 0
-14 -20 -23 -35 0
-14 -20 -23 -41 0
-14 -20 -23 -48 0
-14 -20 -23 -55 0
-14 -20 -23 -59 0
-14 -20 -35 -41 0
-14 -20 -35 -48 0
-14 -20 -35 -55 0
-14 -20 -35 -59 0
-14 -20 -41 -48 0
-14 -20 -41 -55 0
-14 -20 -41 -59 0
-14 -20 -48 -55 0
-14 -20 -48 -59 0
-14 -20 -55 -59 0
-14 -23 -35 -41 0
-14 -23 -35 -48 0
-14 -23 -35 -55 0
-14 -23 -35 -59 0
-14 -23 -41 -48 0
-14 -23 -41 -55 0
-14 -23 -41 -59 0
-14 -23 -48 -55 0
-14 -23 -48 -59 0
-14 -23 -55 -59 0
-14 -35 -41 -48 0
-14 -35 -41 -55 0
-14 -35 -41 -59 0
-14 -35 -48 -55 0
-14 -35 -48 -59 0
-14 -35 -55 -59 0
-14 -41 -48 -55 0
-14 -41 -48 -59 0
-14 -41 -55 -59 0
-14 -48 -55 -59 0
-20 -23 -35 -41 0
-20 -23 -35 -48 0
-20 -23 -35 -55 0
-20 -23 -35 -59 0
-20 -23 -41 -48 0
-20 -23 -41 -55 0
-20 -23 -41 -59 0
-20 -23 -48 -55 0
-20 -23 -48 -59 0
-20 -23 -55 -59 0
-20 -35 -41 -48 0
-20 -35 -41 -55 0
-20 -35 -41 -59 0
-20 -35 -48 -55 0
-20 -35 -48 -59 0
-20 -35 -55 -59 0
-20 -41 -48 -55 0
-20 -41 -48 -59 0
-20 -41 -55 -59 0
-20 -48 -55 -59 0
-23 -35 -41 -48 0
-23 -35 -41 -55 0
-23 -35 -41 -59 0
-23 -35 -48 -55 0
-23 -35 -48 -59 0
-23 -35 -55 -59 0
-23 -41 -48 -55 0
-23 -41 -48 -59 0
-23 -41 -55 -59 0
-23 -48 -55 -59 0
-35 -41 -48 -55 0
-35 -41 -48 -59 0
-35 -41 -55 -59 0
-35 -48 -55 -59 0
-41 -48 -55 -59 0
-7 -9 -15 -25 0
-7 -9 -15 -34 0
-7 -9 -15 -38 0
-7 -9 -15 -45 0
-7 -9 -15 -52 0
-7 -9 -15 -58 0
-7 -9 -25 -34 0
-7 -9 -25 -38 0
-7 -9 -25 -45 0
-7 -9 -25 -52 0
-7 -9 -25 -58 0
-7 -9 -34 -38 0
-7 -9 -34 -45 0
-7 -9 -34 -52 0
-7 -9 -34 -58 0
-7 -9 -38 -45 0
-7 -9 -38 -52 0
-7 -9 -38 -58 0
-7 -9 -45 -52 0
-7 -9 -45 -58 0
-7 -9 -52 -58 0
-7 -15 -25 -34 0
-7 -15 -25 -38 0
-7 -15 -25 -45 0
-7 -15 -25 -52 0
-7 -15 -25 -58 0
-7 -15 -34 -38 0
-7 -15 -34 -45 0
-7 -15 -34 -52 0
-7 -15 -34 -58 0
-7 -15 -38 -45 0
-7 -15 -38 -52 0
-7 -15 -38 -58 0
-7 -15 -45 -52 0
-7 -15 -45 -58 0
-7 -15 -52 -58 0
-7 -25 -34 -38 0
-7 -25 -34 -45 0
-7 -25 -34 -52 0
-7 -25 -34 -58 0
-7 -25 -38 -45 0
-7 -25 -38 -52 0
-7 -25 -38 -58 0
-7 -25 -45 -52 0
-7 -25 -45 -58 0
-7 -25 -52 -58 0
-7 -34 -38 -45 0
-7 -34 -38 -52 0
-7 -34 -38 -58 0
-7 -34 -45 -52 0
-7 -34 -45 -58 0
-7 -34 -52 -58 0
-7 -38 -45 -52 0
-7 -38 -45 -58 0
-7 -38 -52 -58 0
-7 -45 -52 -58 0
-9 -15 -25 -34 0
-9 -15 -25 -38 0
-9 -15 -25 -45 0
-9 -15 -25 -52 0
-9 -15 -25 -58 0
-9 -15 -34 -38 0
-9 -15 -34 -45 0
-9 -15 -34 -52 0
-9 -15 -34 -58 0
-9 -15 -38 -45 0
-9 -15 -38 -52 0
-9 -15 -38 -58 0
-9 -15 -45 -52 0
-9 -15 -45 -58 0
-9 -15 -52 -58 0
-9 -25 -34 -38 0
-9 -25 -34 -45 0
-9 -25 -34 -52 0
-9 -25 -34 -58 0
-9 -25 -38 -45 0
-9 -25 -38 -52 0
-9 -25 -38 -58 0
-9 -25 -45 -52 0
-9 -25 -45 -58 0
-9 -25 -52 -58 0
-9 -34 -38 -45 0
-9 -34 -38 -52 0
-9 -34 -38 -58 0
-9 -34 -45 -52 0
-9 -34 -45 -58 0
-9 -34 -52 -58 0
-9 -38 -45 -52 0
-9 -38 -45 -58 0
-9 -38 -52 -58 0
-9 -45 -52 -58 0
-15 -25 -34 -38 0
-15 -25 -34 -45 0
-15 -25 -34 -52 0
-15 -25 -34 -58 0
-15 -25 -38 -45 0
-15 -25 -38 -52 0
-15 -25 -38 -58 0
-15 -25 -45 -52 0
-15 -25 -45 -58 0
-15 -25 -52 -58 0
-15 -34 -38 -45 0
-15 -34 -38 -52 0
-15 -34 -38 -58 0
-15 -34 -45 -52 0
-15 -34 -45 -58 0
-15 -34 -52 -58 0
-15 -38 -45 -52 0
-15 -38 -45 -58 0
-15 -38 -52 -58 0
-15 -45 -52 -58 0
-25 -34 -38 -45 0
-25 -34 -38 -52 0
-25 -34 -38 -58 0
-25 -34 -45 -52 0
-25 -34 -45 -58 0
-25 -34 -52 -58 0
-25 -38 -45 -52 0
-25 -38 -45 -58 0
-25 -38 -52 -58 0
-25 -45 -52 -58 0
-34 -38 -45 -52 0
-34 -38 -45 -58 0
-34 -38 -52 -58 0
-34 -45 -52 -58 0
-38 -45 -52 -58 0
-4 -10 -15 -28 0
-4 -10 -15 -31 0
-4 -10 -15 -42 0
-4 -10 -15 -49 0
-4 -10 -15 -51 0
-4 -10 -15 -59 0
-4 -10 -28 -31 0
-4 -10 -28 -42 0
-4 -10 -28 -49 0
-4 -10 -28 -51 0
-4 -10 -28 -59 0
-4 -10 -31 -42 0
-4 -10 -31 -49 0
-4 -10 -31 -51 0
-4 -10 -31 -59 0
-4 -10 -42 -49 0
-4 -10 -42 -51 0
-4 -10 -42 -59 0
-4 -10 -49 -51 0
-4 -10 -49 -59 0
-4 -10 -51 -59 0
-4 -15 -28 -31 0
-4 -15 -28 -42 0
-4 -15 -28 -49 0
-4 -15 -28 -51 0
-4 -15 -28 -59 0
-4 -15 -31 -42 0
-4 -15 -31 -49 0
-4 -15 -31 -51 0
-4 -15 -31 -59 0
-4 -15 -42 -49 0
-4 -15 -42 -51 0
-4 -15 -42 -59 0
-4 -15 -49 -51 0
-4 -15 -49 -59 0
-4 -15 -51 -59 0
-4 -28 -31 -42 0
-4 -28 -31 -49 0
-4 -28 -31 -51 0
-4 -28 -31 -59 0
-4 -28 -42 -49 0
-4 -28 -42 -51 0
-4 -28 -42 -59 0
-4 -28 -49 -51 0
-4 -28 -49 -59 0
-4 -28 -51 -59 0
-4 -31 -42 -49 0
-4 -31 -42 -51 0
-4 -31 -42 -59 0
-4 -31 -49 -51 0
-4 -31 -49 -59 0
-4 -31 -51 -59 0
-4 -42 -49 -51 0
-4 -42 -49 -59 0
-4 -42 -51 -59 0
-4 -49 -51 -59 0
-10 -15 -28 -31 0
-10 -15 -28 -42 0
-10 -15 -28 -49 0
-10 -15 -28 -51 0
-10 -15 -28 -59 0
-10 -15 -31 -42 0
-10 -15 -31 -49 0
-10 -15 -31 -51 0
-10 -15 -31 -59 0
-10 -15 -42 -49 0
-10 -15 -42 -51 0
-10 -15 -42 -59 0
-10 -15 -49 -51 0
-10 -15 -49 -59 0
-10 -15 -51 -59 0
-10 -28 -31 -42 0
-10 -28 -31 -49 0
-10 -28 -31 -51 0
-10 -28 -31 -59 0
-10 -28 -42 -49 0
-10 -28 -42 -51 0
-10 -28 -42 -59 0
-10 -28 -49 -51 0
-10 -28 -49 -59 0
-10 -28 -51 -59 0
-10 -31 -42 -49 0
-10 -31 -42 -51 0
-10 -31 -42 -59 0
-10 -31 -49 -51 0
-10 -31 -49 -59 0
-10 -31 -51 -59 0
-10 -42 -49 -51 0
-10 -42 -49 -59 0
-10 -42 -51 -59 0
-10 -49 -51 -59 0
-15 -28 -31 -42 0
-15 -28 -31 -49 0
-15 -28 -31 -51 0
-15 -28 -31 -59 0
-15 -28 -42 -49 0
-15 -28 -42 -51 0
-15 -28 -42 -59 0
-15 -28 -49 -51 0
-15 -28 -49 -59 0
-15 -28 -51 -59 0
-15 -31 -42 -49 0
-15 -31 -42 -51 0
-15 -31 -42 -59 0
-15 -31 -49 -51 0
-15 -31 -49 -59 0
-15 -31 -51 -59 0
-15 -42 -49 -51 0
-15 -42 -49 -59 0
-15 -42 -51 -59 0
-15 -49 -51 -59 0
-28 -31 -42 -49 0
-28 -31 -42 -51 0
-28 -31 -42 -59 0
-28 -31 -49 -51 0
-28 -31 -49 -59 0
-28 -31 -51 -59 0
-28 -42 -49 -51 0
-28 -42 -49 -59 0
-28 -42 -51 -59 0
-28 -49 -51 -59 0
-31 -42 -49 -51 0
-31 -42 -49 -59 0
-31 -42 -51 -59 0
-31 -49 -51 -59 0
-42 -49 -51 -59 0
-5 -12 -17 -28 0
-5 -12 -17 -29 0
-5 -12 -17 -38 0
-5 -12 -17 -49 0
-5 -12 -17 -52 0
-5 -12 -17 -57 0
-5 -12 -28 -29 0
-5 -12 -28 -38 0
-5 -12 -28 -49 0
-5 -12 -28 -52 0
-5 -12 -28 -57 0
-5 -12 -29 -38 0
-5 -12 -29 -49 0
-5 -12 -29 -52 0
-5 -12 -29 -57 0
-5 -12 -38 -49 0
-5 -12 -38 -52 0
-5 -12 -38 -57 0
-5 -12 -49 -52 0
-5 -12 -49 -57 0
-5 -12 -52 -57 0
-5 -17 -28 -29 0
-5 -17 -28 -38 0
-5 -17 -28 -49 0
-5 -17 -28 -52 0
-5 -17 -28 -57 0
-5 -17 -29 -38 0
-5 -17 -29 -49 0
-5 -17 -29 -52 0
-5 -17 -29 -57 0
-5 -17 -38 -49 0
-5 -17 -38 -52 0
-5 -17 -38 -57 0
-5 -17 -49 -52 0
-5 -17 -49 -57 0
-5 -17 -52 -57 0
-5 -28 -29 -38 0
-5 -28 -29 -49 0
-5 -28 -29 -52 0
-5 -28 -29 -57 0
-5 -28 -38 -49 0
-5 -28 -38 -52 0
-5 -28 -38 -57 0
-5 -28 -49 -52 0
-5 -28 -49 -57 0
-5 -28 -52 -57 0
-5 -29 -38 -49 0
-5 -29 -38 -52 0
-5 -29 -38 -57 0
-5 -29 -49 -52 0
-5 -29 -49 -57 0
-5 -29 -52 -57 0
-5 -38 -49 -52 0
-5 -38 -49 -57 0
-5 -38 -52 -57 0
-5 -49 -52 -57 0
-12 -17 -28 -29 0
-12 -17 -28 -38 0
-12 -17 -28 -49 0
-12 -17 -28 -52 0
-12 -17 -28 -57 0
-12 -17 -29 -38 0
-12 -17 -29 -49 0
-12 -17 -29 -52 0
-12 -17 -29 -57 0
-12 -17 -38 -49 0
-12 -17 -38 -52 0
-12 -17 -38 -57 0
-12 -17 -49 -52 0
-12 -17 -49 -57 0
-12 -17 -52 -57 0
-12 -28 -29 -38 0
-12 -28 -29 -49 0
-12 -28 -29 -52 0
-12 -28 -29 -57 0
-12 -28 -38 -49 0
-12 -28 -38 -52 0
-12 -28 -38 -57 0
-12 -28 -49 -52 0
-12 -28 -49 -57 0
-12 -28 -52 -57 0
-12 -29 -38 -49 0
-12 -29 -38 -52 0
-12 -29 -38 -57 0
-12 -29 -49 -52 0
-12 -29 -49 -57 0
-12 -29 -52 -57 0
-12 -38 -49 -52 0
-12 -38 -49 -57 0
-12 -38 -52 -57 0
-12 -49 -52 -57 0
-17 -28 -29 -38 0
-17 -28 -29 -49 0
-17 -28 -29 -52 0
-17 -28 -29 -57 0
-17 -28 -38 -49 0
-17 -28 -38 -52 0
-17 -28 -38 -57 0
-17 -28 -49 -52 0
-17 -28 -49 -57 0
-17 -28 -52 -57 0
-17 -29 -38 -49 0
-17 -29 -38 -52 0
-17 -29 -38 -57 0
-17 -29 -49 -52 0
-17 -29 -49 -57 0
-17 -29 -52 -57 0
-17 -38 -49 -52 0
-17 -38 -49 -57 0
-17 -38 -52 -57 0
-17 -49 -52 -57 0
-28 -29 -38 -49 0
-28 -29 -38 -52 0
-28 -29 -38 -57 0
-28 -29 -49 -52 0
-28 -29 -49 -57 0
-28 -29 -52 -57 0
-28 -38 -49 -52 0
-28 -38 -49 -57 0
-28 -38 -52 -57 0
-28 -49 -52 -57 0
-29 -38 -49 -52 0
-29 -38 -49 -57 0
-29 -38 -52 -57 0
-29 -49 -52 -57 0
-38 -49 -52 -57 0
-7 -11 -17 -23 0
-7 -11 -17 -31 0
-7 -11 -17 -36 0
-7 -11 -17 -46 0
-7 -11 -17 -50 0
-7 -11 -17 -57 0
-7 -11 -23 -31 0
-7 -11 -23 -36 0
-7 -11 -23 -46 0
-7 -11 -23 -50 0
-7 -11 -23 -57 0
-7 -11 -31 -36 0
-7 -11 -31 -46 0
-7 -11 -31 -50 0
-7 -11 -31 -57 0
-7 -11 -36 -46 0
-7 -11 -36 -50 0
-7 -11 -36 -57 0
-7 -11 -46 -50 0
-7 -11 -46 -57 0
-7 -11 -50 -57 0
-7 -17 -23 -31 0
-7 -17 -23 -36 0
-7 -17 -23 -46 0
-7 -17 -23 -50 0
-7 -17 -23 -57 0
-7 -17 -31 -36 0
-7 -17 -31 -46 0
-7 -17 -31 -50 0
-7 -17 -31 -57 0
-7 -17 -36 -46 0
-7 -17 -36 -50 0
-7 -17 -36 -57 0
-7 -17 -46 -50 0
-7 -17 -46 -57 0
-7 -17 -50 -57 0
-7 -23 -31 -36 0
-7 -23 -31 -46 0
-7 -23 -31 -50 0
-7 -23 -31 -57 0
-7 -23 -36 -46 0
-7 -23 -36 -50 0
-7 -23 -36 -57 0
-7 -23 -46 -50 0
-7 -23 -46 -57 0
-7 -23 -50 -57 0
-7 -31 -36 -46 0
-7 -31 -36 -50 0
-7 -31 -36 -57 0
-7 -31 -46 -50 0
-7 -31 -46 -57 0
-7 -31 -50 -57 0
-7 -36 -46 -50 0
-7 -36 -46 -57 0
-7 -36 -50 -57 0
-7 -46 -50 -57 0
-11 -17 -23 -31 0
-11 -17 -23 -36 0
-11 -17 -23 -46 0
-11 -17 -23 -50 0
-11 -17 -23 -57 0
-11 -17 -31 -36 0
-11 -17 -31 -46 0
-11 -17 -31 -50 0
-11 -17 -31 -57 0
-11 -17 -36 -46 0
-11 -17 -36 -50 0
-11 -17 -36 -57 0
-11 -17 -46 -50 0
-11 -17 -46 -57 0
-11 -17 -50 -57 0
-11 -23 -31 -36 0
-11 -23 -31 -46 0
-11 -23 -31 -50 0
-11 -23 -31 -57 0
-11 -23 -36 -46 0
-11 -23 -36 -50 0
-11 -23 -36 -57 0
-11 -23 -46 -50 0
-11 -23 -46 -57 0
-11 -23 -50 -57 0
-11 -31 -36 -46 0
-11 -31 -36 -50 0
-11 -31 -36 -57 0
-11 -31 -46 -50 0
-11 -31 -46 -57 0
-11 -31 -50 -57 0
-11 -36 -46 -50 0
-11 -36 -46 -57 0
-11 -36 -50 -57 0
-11 -46 -50 -57 0
-17 -23 -31 -36 0
-17 -23 -31 -46 0
-17 -23 -31 -50 0
-17 -23 -31 -57 0
-17 -23 -36 -46 0
-17 -23 -36 -50 0
-17 -23 -36 -57 0
-17 -23 -46 -50 0
-17 -23 -46 -57 0
-17 -23 -50 -57 0
-17 -31 -36 -46 0
-17 -31 -36 -50 0
-17 -31 -36 -57 0
-17 -31 -46 -50 0
-17 -31 -46 -57 0
-17 -31 -50 -57 0
-17 -36 -46 -50 0
-17 -36 -46 -57 0
-17 -36 -50 -57 0
-17 -46 -50 -57 0
-23 -31 -36 -46 0
-23 -31 -36 -50 0
-23 -31 -36 -57 0
-23 -31 -46 -50 0
-23 -31 -46 -57 0
-23 -31 -50 -57 0
-23 -36 -46 -50 0
-23 -36 -46 -57 0
-23 -36 -50 -57 0
-23 -46 -50 -57 0
-31 -36 -46 -50 0
-31 -36 -46 -57 0
-31 -36 -50 -57 0
-31 -46 -50 -57 0
-36 -46 -50 -57 0
-2 -11 -19 -23 0
-2 -11 -19 -29 0
-2 -11 -19 -38 0
-2 -11 -19 -44 0
-2 -11 -19 -53 0
-2 -11 -19 -62 0
-2 -11 -23 -29 0
-2 -11 -23 -38 0
-2 -11 -23 -44 0
-2 -11 -23 -53 0
-2 -11 -23 -62 0
-2 -11 -29 -38 0
-2 -11 -29 -44 0
-2 -11 -29 -53 0
-2 -11 -29 -62 0
-2 -11 -38 -44 0
-2 -11 -38 -53 0
-2 -11 -38 -62 0
-2 -11 -44 -53 0
-2 -11 -44 -62 0
-2 -11 -53 -62 0
-2 -19 -23 -29 0
-2 -19 -23 -38 0
-2 -19 -23 -44 0
-2 -19 -23 -53 0
-2 -19 -23 -62 0
-2 -19 -29 -38 0
-2 -19 -29 -44 0
-2 -19 -29 -53 0
-2 -19 -29 -62 0
-2 -19 -38 -44 0
-2 -19 -38 -53 0
-2 -19 -38 -62 0
-2 -19 -44 -53 0
-2 -19 -44 -62 0
-2 -19 -53 -62 0
-2 -23 -29 -38 0
-2 -23 -29 -44 0
-2 -23 -29 -53 0
-2 -23 -29 -62 0
-2 -23 -38 -44 0
-2 -23 -38 -53 0
-2 -23 -38 -62 0
-2 -23 -44 -53 0
-2 -23 -44 -62 0
-2 -23 -53 -62 0
-2 -29 -38 -44 0
-2 -29 -38 -53 0
-2 -29 -38 -62 0
-2 -29 -44 -53 0
-2 -29 -44 -62 0
-2 -29 -53 -62 0
-2 -38 -44 -53 0
-2 -38 -44 -62 0
-2 -38 -53 -62 0
-2 -44 -53 -62 0
-11 -19 -23 -29 0
-11 -19 -23 -38 0
-11 -19 -23 -44 0
-11 -19 -23 -53 0
-11 -19 -23 -62 0
-11 -19 -29 -38 0
-11 -19 -29 -44 0
-11 -19 -29 -53 0
-11 -19 -29 -62 0
-11 -19 -38 -44 0
-11 -19 -38 -53 0
-11 -19 -38 -62 0
-11 -19 -44 -53 0
-11 -19 -44 -62 0
-11 -19 -53 -62 0
-11 -23 -29 -38 0
-11 -23 -29 -44 0
-11 -23 -29 -53 0
-11 -23 -29 -62 0
-11 -23 -38 -44 0
-11 -23 -38 -53 0
-11 -23 -38 -62 0
-11 -23 -44 -53 0
-11 -23 -44 -62 0
-11 -23 -53 -62 0
-11 -29 -38 -44 0
-11 -29 -38 -53 0
-11 -29 -38 -62 0
-11 -29 -44 -53 0
-11 -29 -44 -62 0
-11 -29 -53 -62 0
-11 -38 -44 -53 0
-11 -38 -44 -62 0
-11 -38 -53 -62 0
-11 -44 -53 -62 0
-19 -23 -29 -38 0
-19 -23 -29 -44 0
-19 -23 -29 -53 0
-19 -23 -29 -62 0
-19 -23 -38 -44 0
-19 -23 -38 -53 0
-19 -23 -38 -62 0
-19 -23 -44 -53 0
-19 -23 -44 -62 0
-19 -23 -53 -62 0
-19 -29 -38 -44 0
-19 -29 -38 -53 0
-19 -29 -38 -62 0
-19 -29 -44 -53 0
-19 -29 -44 -62 0
-19 -29 -53 -62 0
-19 -38 -44 -53 0
-19 -38 -44 -62 0
-19 -38 -53 -62 0
-19 -44 -53 -62 0
-23 -29 -38 -44 0
-23 -29 -38 -53 0
-23 -29 -38 -62 0
-23 -29 -44 -53 0
-23 -29 -44 -62 0
-23 -29 -53 -62 0
-23 -38 -44 -53 0
-23 -38 -44 -62 0
-23 -38 -53 -62 0
-23 -44 -53 -62 0
-29 -38 -44 -53 0
-29 -38 -44 -62 0
-29 -38 -53 -62 0
-29 -44 -53 -62 0
-38 -44 -53 -62 0
-1 -10 -16 -25 0
-1 -10 -16 -30 0
-1 -10 -16 -39 0
-1 -10 -16 -47 0
-1 -10 -16 -54 0
-1 -10 -16 -57 0
-1 -10 -25 -30 0
-1 -10 -25 -39 0
-1 -10 -25 -47 0
-1 -10 -25 -54 0
-1 -10 -25 -57 0
-1 -10 -30 -39 0
-1 -10 -30 -47 0
-1 -10 -30 -54 0
-1 -10 -30 -57 0
-1 -10 -39 -47 0
-1 -10 -39 -54 0
-1 -10 -39 -57 0
-1 -10 -47 -54 0
-1 -10 -47 -57 0
-1 -10 -54 -57 0
-1 -16 -25 -30 0
-1 -16 -25 -39 0
-1 -16 -25 -47 0
-1 -16 -25 -54 0
-1 -16 -25 -57 0
-1 -16 -30 -39 0
-1 -16 -30 -47 0
-1 -16 -30 -54 0
-1 -16 -30 -57 0
-1 -16 -39 -47 0
-1 -16 -39 -54 0
-1 -16 -39 -57 0
-1 -16 -47 -54 0
-1 -16 -47 -57 0
-1 -16 -54 -57 0
-1 -25 -30 -39 0
-1 -25 -30 -47 0
-1 -25 -30 -54 0
-1 -25 -30 -57 0
-1 -25 -39 -47 0
-1 -25 -39 -54 0
-1 -25 -39 -57 0
-1 -25 -47 -54 0
-1 -25 -47 -57 0
-1 -25 -54 -57 0
-1 -30 -39 -47 0
-1 -30 -39 -54 0
-1 -30 -39 -57 0
-1 -30 -47 -54 0
-1 -30 -47 -57 0
-1 -30 -54 -57 0
-1 -39 -47 -54 0
-1 -39 -47 -57 0
-1 -39 -54 -57 0
-1 -47 -54 -57 0
-10 -16 -25 -30 0
-10 -16 -25 -39 0
-10 -16 -25 -47 0
-10 -16 -25 -54 0
-10 -16 -25 -57 0
-10 -16 -30 -39 0
-10 -16 -30 -47 0
-10 -16 -30 -54 0
-10 -16 -30 -57 0
-10 -16 -39 -47 0
-10 -16 -39 -54 0
-10 -16 -39 -57 0
-10 -16 -47 -54 0
-10 -16 -47 -57 0
-10 -16 -54 -57 0
-10 -25 -30 -39 0
-10 -25 -30 -47 0
-10 -25 -30 -54 0
-10 -25 -30 -57 0
-10 -25 -39 -47 0
-10 -25 -39 -54 0
-10 -25 -39 -57 0
-10 -25 -47 -54 0
-10 -25 -47 -57 0
-10 -25 -54 -57 0
-10 -30 -39 -47 0
-10 -30 -39 -54 0
-10 -30 -39 -57 0
-10 -30 -47 -54 0
-10 -30 -47 -57 0
-10 -30 -54 -57 0
-10 -39 -47 -54 0
-10 -39 -47 -57 0
-10 -39 -54 -57 0
-10 -47 -54 -57 0
-16 -25 -30 -39 0
-16 -25 -30 -47 0
-16 -25 -30 -54 0
-16 -25 -30 -57 0
-16 -25 -39 -47 0
-16 -25 -39 -54 0
-16 -25 -39 -57 0
-16 -25 -47 -54 0
-16 -25 -47 -57 0
-16 -25 -54 -57 0
-16 -30 -39 -47 0
-16 -30 -39 -54 0
-16 -30 -39 -57 0
-16 -30 -47 -54 0
-16 -30 -47 -57 0
-16 -30 -54 -57 0
-16 -39 -47 -54 0
-16 -39 -47 -57 0
-16 -39 -54 -57 0
-16 -47 -54 -57 0
-25 -30 -39 -47 0
-25 -30 -39 -54 0
-25 -30 -39 -57 0
-25 -30 -47 -54 0
-25 -30 -47 -57 0
-25 -30 -54 -57 0
-25 -39 -47 -54 0
-25 -39 -47 -57 0
-25 -39 -54 -57 0
-25 -47 -54 -57 0
-30 -39 -47 -54 0
-30 -39 -47 -57 0
-30 -39 -54 -57 0
-30 -47 -54 -57 0
-39 -47 -54 -57 0
-1 -10 -19 -23 0
-1 -10 -19 -31 0
-1 -10 -19 -37 0
-1 -10 -19 -48 0
-1 -10 -19 -50 0
-1 -10 -19 -60 0
-1 -10 -23 -31 0
-1 -10 -23 -37 0
-1 -10 -23 -48 0
-1 -10 -23 -50 0
-1 -10 -23 -60 0
-1 -10 -31 -37 0
-1 -10 -31 -48 0
-1 -10 -31 -50 0
-1 -10 -31 -60 0
-1 -10 -37 -48 0
-1 -10 -37 -50 0
-1 -10 -37 -60 0
-1 -10 -48 -50 0
-1 -10 -48 -60 0
-1 -10 -50 -60 0
-1 -19 -23 -31 0
-1 -19 -23 -37 0
-1 -19 -23 -48 0
-1 -19 -23 -50 0
-1 -19 -23 -60 0
-1 -19 -31 -37 0
-1 -19 -31 -48 0
-1 -19 -31 -50 0
-1 -19 -31 -60 0
-1 -19 -37 -48 0
-1 -19 -37 -50 0
-1 -19 -37 -60 0
-1 -19 -48 -50 0
-1 -19 -48 -60 0
-1 -19 -50 -60 0
-1 -23 -31 -37 0
-1 -23 -31 -48 0
-1 -23 -31 -50 0
-1 -23 -31 -60 0
-1 -23 -37 -48 0
-1 -23 -37 -50 0
-1 -23 -37 -60 0
-1 -23 -48 -50 0
-1 -23 -48 -60 0
-1 -23 -50 -60 0
-1 -31 -37 -48 0
-1 -31 -37 -50 0
-1 -31 -37 -60 0
-1 -31 -48 -50 0
-1 -31 -48 -60 0
-1 -31 -50 -60 0
-1 -37 -48 -50 0
-1 -37 -48 -60 0
-1 -37 -50 -60 0
-1 -48 -50 -60 0
-10 -19 -23 -31 0
-10 -19 -23 -37 0
-10 -19 -23 -48 0
-10 -19 -23 -50 0
-10 -19 -23 -60 0
-10 -19 -31 -37 0
-10 -19 -31 -48 0
-10 -19 -31 -50 0
-10 -19 -31 -60 0
-10 -19 -37 -48 0
-10 -19 -37 -50 0
-10 -19 -37 -60 0
-10 -19 -48 -50 0
-10 -19 -48 -60 0
-10 -19 -50 -60 0
-10 -23 -31 -37 0
-10 -23 -31 -48 0
-10 -23 -31 -50 0
-10 -23 -31 -60 0
-10 -23 -37 -48 0
-10 -23 -37 -50 0
-10 -23 -37 -60 0
-10 -23 -48 -50 0
-10 -23 -48 -60 0
-10 -23 -50 -60 0
-10 -31 -37 -48 0
-10 -31 -37 -50 0
-10 -31 -37 -60 0
-10 -31 -48 -50 0
-10 -31 -48 -60 0
-10 -31 -50 -60 0
-10 -37 -48 -50 0
-10 -37 -48 -60 0
-10 -37 -50 -60 0
-10 -48 -50 -60 0
-19 -23 -31 -37 0
-19 -23 -31 -48 0
-19 -23 -31 -50 0
-19 -23 -31 -60 0
-19 -23 -37 -48 0
-19 -23 -37 -50 0
-19 -23 -37 -60 0
-19 -23 -48 -50 0
-19 -23 -48 -60 0
-19 -23 -50 -60 0
-19 -31 -37 -48 0
-19 -31 -37 -50 0
-19 -31 -37 -60 0
-19 -31 -48 -50 0
-19 -31 -48 -60 0
-19 -31 -50 -60 0
-19 -37 -48 -50 0
-19 -37 -48 -60 0
-19 -37 -50 -60 0
-19 -48 -50 -60 0
-23 -31 -37 -48 0
-23 -31 -37 -50 0
-23 -31 -37 -60 0
-23 -31 -48 -50 0
-23 -31 -48 -60 0
-23 -31 -50 -60 0
-23 -37 -48 -50 0
-23 -37 -48 -60 0
-23 -37 -50 -60 0
-23 -48 -50 -60 0
-31 -37 -48 -50 0
-31 -37 -48 -60 0
-31 -37 -50 -60 0
-31 -48 -50 -60 0
-37 -48 -50 -60 0
-6 -9 -17 -26 0
-6 -9 -17 -29 0
-6 -9 -17 -36 0
-6 -9 -17 -49 0
-6 -9 -17 -51 0
-6 -9 -17 -61 0
-6 -9 -26 -29 0
-6 -9 -26 -36 0
-6 -9 -26 -49 0
-6 -9 -26 -51 0
-6 -9 -26 -61 0
-6 -9 -29 -36 0
-6 -9 -29 -49 0
-6 -9 -29 -51 0
-6 -9 -29 -61 0
-6 -9 -36 -49 0
-6 -9 -36 -51 0
-6 -9 -36 -61 0
-6 -9 -49 -51 0
-6 -9 -49 -61 0
-6 -9 -51 -61 0
-6 -17 -26 -29 0
-6 -17 -26 -36 0
-6 -17 -26 -49 0
-6 -17 -26 -51 0
-6 -17 -26 -61 0
-6 -17 -29 -36 0
-6 -17 -29 -49 0
-6 -17 -29 -51 0
-6 -17 -29 -61 0
-6 -17 -36 -49 0
-6 -17 -36 -51 0
-6 -17 -36 -61 0
-6 -17 -49 -51 0
-6 -17 -49 -61 0
-6 -17 -51 -61 0
-6 -26 -29 -36 0
-6 -26 -29 -49 0
-6 -26 -29 -51 0
-6 -26 -29 -61 0
-6 -26 -36 -49 0
-6 -26 -36 -51 0
-6 -26 -36 -61 0
-6 -26 -49 -51 0
-6 -26 -49 -61 0
-6 -26 -51 -61 0
-6 -29 -36 -49 0
-6 -29 -36 -51 0
-6 -29 -36 -61 0
-6 -29 -49 -51 0
-6 -29 -49 -61 0
-6 -29 -51 -61 0
-6 -36 -49 -51 0
-6 -36 -49 -61 0
-6 -36 -51 -61 0
-6 -49 -51 -61 0
-9 -17 -26 -29 0
-9 -17 -26 -36 0
-9 -17 -26 -49 0
-9 -17 -26 -51 0
-9 -17 -26 -61 0
-9 -17 -29 -36 0
-9 -17 -29 -49 0
-9 -17 -29 -51 0
-9 -17 -29 -61 0
-9 -17 -36 -49 0
-9 -17 -36 -51 0
-9 -17 -36 -61 0
-9 -17 -49 -51 0
-9 -17 -49 -61 0
-9 -17 -51 -61 0
-9 -26 -29 -36 0
-9 -26 -29 -49 0
-9 -26 -29 -51 0
-9 -26 -29 -61 0
-9 -26 -36 -49 0
-9 -26 -36 -51 0
-9 -26 -36 -61 0
-9 -26 -49 -51 0
-9 -26 -49 -61 0
-9 -26 -51 -61 0
-9 -29 -36 -49 0
-9 -29 -36 -51 0
-9 -29 -36 -61 0
-9 -29 -49 -51 0
-9 -29 -49 -61 0
-9 -29 -51 -61 0
-9 -36 -49 -51 0
-9 -36 -49 -61 0
-9 -36 -51 -61 0
-9 -49 -51 -61 0
-17 -26 -29 -36 0
-17 -26 -29 -49 0
-17 -26 -29 -51 0
-17 -26 -29 -61 0
-17 -26 -36 -49 0
-17 -26 -36 -51 0
-17 -26 -36 -61 0
-17 -26 -49 -51 0
-17 -26 -49 -61 0
-17 -26 -51 -61 0
-17 -29 -36 -49 0
-17 -29 -36 -51 0
-17 -29 -36 -61 0
-17 -29 -49 -51 0
-17 -29 -49 -61 0
-17 -29 -51 -61 0
-17 -36 -49 -51 0
-17 -36 -49 -61 0
-17 -36 -51 -61 0
-17 -49 -51 -61 0
-26 -29 -36 -49 0
-26 -29 -36 -51 0
-26 -29 -36 -61 0
-26 -29 -49 -51 0
-26 -29 -49 -61 0
-26 -29 -51 -61 0
-26 -36 -49 -51 0
-26 -36 -49 -61 0
-26 -36 -51 -61 0
-26 -49 -51 -61 0
-29 -36 -49 -51 0
-29 -36 -49 -61 0
-29 -36 -51 -61 0
-29 -49 -51 -61 0
-36 -49 -51 -61 0
-7 -10 -19 -24 0
-7 -10 -19 -34 0
-7 -10 -19 -37 0
-7 -10 -19 -46 0
-7 -10 -19 -52 0
-7 -10 -19 -62 0
-7 -10 -24 -34 0
-7 -10 -24 -37 0
-7 -10 -24 -46 0
-7 -10 -24 -52 0
-7 -10 -24 -62 0
-7 -10 -34 -37 0
-7 -10 -34 -46 0
-7 -10 -34 -52 0
-7 -10 -34 -62 0
-7 -10 -37 -46 0
-7 -10 -37 -52 0
-7 -10 -37 -62 0
-7 -10 -46 -52 0
-7 -10 -46 -62 0
-7 -10 -52 -62 0
-7 -19 -24 -34 0
-7 -19 -24 -37 0
-7 -19 -24 -46 0
-7 -19 -24 -52 0
-7 -19 -24 -62 0
-7 -19 -34 -37 0
-7 -19 -34 -46 0
-7 -19 -34 -52 0
-7 -19 -34 -62 0
-7 -19 -37 -46 0
-7 -19 -37 -52 0
-7 -19 -37 -62 0
-7 -19 -46 -52 0
-7 -19 -46 -62 0
-7 -19 -52 -62 0
-7 -24 -34 -37 0
-7 -24 -34 -46 0
-7 -24 -34 -52 0
-7 -24 -34 -62 0
-7 -24 -37 -46 0
-7 -24 -37 -52 0
-7 -24 -37 -62 0
-7 -24 -46 -52 0
-7 -24 -46 -62 0
-7 -24 -52 -62 0
-7 -34 -37 -46 0
-7 -34 -37 -52 0
-7 -34 -37 -62 0
-7 -34 -46 -52 0
-7 -34 -46 -62 0
-7 -34 -52 -62 0
-7 -37 -46 -52 0
-7 -37 -46 -62 0
-7 -37 -52 -62 0
-7 -46 -52 -62 0
-10 -19 -24 -34 0
-10 -19 -24 -37 0
-10 -19 -24 -46 0
-10 -19 -24 -52 0
-10 -19 -24 -62 0
-10 -19 -34 -37 0
-10 -19 -34 -46 0
-10 -19 -34 -52 0
-10 -19 -34 -62 0
-10 -19 -37 -46 0
-10 -19 -37 -52 0
-10 -19 -37 -62 0
-10 -19 -46 -52 0
-10 -19 -46 -62 0
-10 -19 -52 -62 0
-10 -24 -34 -37 0
-10 -24 -34 -46 0
-10 -24 -34 -52 0
-10 -24 -34 -62 0
-10 -24 -37 -46 0
-10 -24 -37 -52 0
-10 -24 -37 -62 0
-10 -24 -46 -52 0
-10 -24 -46 -62 0
-10 -24 -52 -62 0
-10 -34 -37 -46 0
-10 -34 -37 -52 0
-10 -34 -37 -62 0
-10 -34 -46 -52 0
-10 -34 -46 -62 0
-10 -34 -52 -62 0
-10 -37 -46 -52 0
-10 -37 -46 -62 0
-10 -37 -52 -62 0
-10 -46 -52 -62 0
-19 -24 -34 -37 0
-19 -24 -34 -46 0
-19 -24 -34 -52 0
-19 -24 -34 -62 0
-19 -24 -37 -46 0
-19 -24 -37 -52 0
-19 -24 -37 -62 0
-19 -24 -46 -52 0
-19 -24 -46 -62 0
-19 -24 -52 -62 0
-19 -34 -37 -46 0
-19 -34 -37 -52 0
-19 -34 -37 -62 0
-19 -34 -46 -52 0
-19 -34 -46 -62 0
-19 -34 -52 -62 0
-19 -37 -46 -52 0
-19 -37 -46 -62 0
-19 -37 -52 -62 0
-19 -46 -52 -62 0
-24 -34 -37 -46 0
-24 -34 -37 -52 0
-24 -34 -37 -62 0
-24 -34 -46 -52 0
-24 -34 -46 -62 0
-24 -34 -52 -62 0
-24 -37 -46 -52 0
-24 -37 -46 -62 0
-24 -37 -52 -62 0
-24 -46 -52 -62 0
-34 -37 -46 -52 0
-34 -37 -46 -62 0
-34 -37 -52 -62 0
-34 -46 -52 -62 0
-37 -46 -52 -62 0
-5 -11 -15 -25 0
-5 -11 -15 -29 0
-5 -11 -15 -40 0
-5 -11 -15 -44 0
-5 -11 -15 -56 0
-5 -11 -15 -57 0
-5 -11 -25 -29 0
-5 -11 -25 -40 0
-5 -11 -25 -44 0
-5 -11 -25 -56 0
-5 -11 -25 -57 0
-5 -11 -29 -40 0
-5 -11 -29 -44 0
-5 -11 -29 -56 0
-5 -11 -29 -57 0
-5 -11 -40 -44 0
-5 -11 -40 -56 0
-5 -11 -40 -57 0
-5 -11 -44 -56 0
-5 -11 -44 -57 0
-5 -11 -56 -57 0
-5 -15 -25 -29 0
-5 -15 -25 -40 0
-5 -15 -25 -44 0
-5 -15 -25 -56 0
-5 -15 -25 -57 0
-5 -15 -29 -40 0
-5 -15 -29 -44 0
-5 -15 -29 -56 0
-5 -15 -29 -57 0
-5 -15 -40 -44 0
-5 -15 -40 -56 0
-5 -15 -40 -57 0
-5 -15 -44 -56 0
-5 -15 -44 -57 0
-5 -15 -56 -57 0
-5 -25 -29 -40 0
-5 -25 -29 -44 0
-5 -25 -29 -56 0
-5 -25 -29 -57 0
-5 -25 -40 -44 0
-5 -25 -40 -56 0
-5 -25 -40 -57 0
-5 -25 -44 -56 0
-5 -25 -44 -57 0
-5 -25 -56 -57 0
-5 -29 -40 -44 0
-5 -29 -40 -56 0
-5 -29 -40 -57 0
-5 -29 -44 -56 0
-5 -29 -44 -57 0
-5 -29 -56 -57 0
-5 -40 -44 -56 0
-5 -40 -44 -57 0
-5 -40 -56 -57 0
-5 -44 -56 -57 0
-11 -15 -25 -29 0
-11 -15 -25 -40 0
-11 -15 -25 -44 0
-11 -15 -25 -56 0
-11 -15 -25 -57 0
-11 -15 -29 -40 0
-11 -15 -29 -44 0
-11 -15 -29 -56 0
-11 -15 -29 -57 0
-11 -15 -40 -44 0
-11 -15 -40 -56 0
-11 -15 -40 -57 0
-11 -15 -44 -56 0
-11 -15 -44 -57 0
-11 -15 -56 -57 0
-11 -25 -29 -40 0
-11 -25 -29 -44 0
-11 -25 -29 -56 0
-11 -25 -29 -57 0
-11 -25 -40 -44 0
-11 -25 -40 -56 0
-11 -25 -40 -57 0
-11 -25 -44 -56 0
-11 -25 -44 -57 0
-11 -25 -56 -57 0
-11 -29 -40 -44 0
-11 -29 -40 -56 0
-11 -29 -40 -57 0
-11 -29 -44 -56 0
-11 -29 -44 -57 0
-11 -29 -56 -57 0
-11 -40 -44 -56 0
-11 -40 -44 -57 0
-11 -40 -56 -57 0
-11 -44 -56 -57 0
-15 -25 -29 -40 0
-15 -25 -29 -44 0
-15 -25 -29 -56 0
-15 -25 -29 -57 0
-15 -25 -40 -44 0
-15 -25 -40 -56 0
-15 -25 -40 -57 0
-15 -25 -44 -56 0
-15 -25 -44 -57 0
-15 -25 -56 -57 0
-15 -29 -40 -44 0
-15 -29 -40 -56 0
-15 -29 -40 -57 0
-15 -29 -44 -56 0
-15 -29 -44 -57 0
-15 -29 -56 -57 0
-15 -40 -44 -56 0
-15 -40 -44 -57 0
-15 -40 -56 -57 0
-15 -44 -56 -57 0
-25 -29 -40 -44 0
-25 -29 -40 -56 0
-25 -29 -40 -57 0
-25 -29 -44 -56 0
-25 -29 -44 -57 0
-25 -29 -56 -57 0
-25 -40 -44 -56 0
-25 -40 -44 -57 0
-25 -40 -56 -57 0
-25 -44 -56 -57 0
-29 -40 -44 -56 0
-29 -40 -44 -57 0
-29 -40 -56 -57 0
-29 -44 -56 -57 0
-40 -44 -56 -57 0
-2 -12 -20 -25 0
-2 -12 -20 -29 0
-2 -12 -20 -42 0
-2 -12 -20 -43 0
-2 -12 -20 -54 0
-2 -12 -20 -60 0
-2 -12 -25 -29 0
-2 -12 -25 -42 0
-2 -12 -25 -43 0
-2 -12 -25 -54 0
-2 -12 -25 -60 0
-2 -12 -29 -42 0
-2 -12 -29 -43 0
-2 -12 -29 -54 0
-2 -12 -29 -60 0
-2 -12 -42 -43 0
-2 -12 -42 -54 0
-2 -12 -42 -60 0
-2 -12 -43 -54 0
-2 -12 -43 -60 0
-2 -12 -54 -60 0
-2 -20 -25 -29 0
-2 -20 -25 -42 0
-2 -20 -25 -43 0
-2 -20 -25 -54 0
-2 -20 -25 -60 0
-2 -20 -29 -42 0
-2 -20 -29 -43 0
-2 -20 -29 -54 0
-2 -20 -29 -60 0
-2 -20 -42 -43 0
-2 -20 -42 -54 0
-2 -20 -42 -60 0
-2 -20 -43 -54 0
-2 -20 -43 -60 0
-2 -20 -54 -60 0
-2 -25 -29 -42 0
-2 -25 -29 -43 0
-2 -25 -29 -54 0
-2 -25 -29 -60 0
-2 -25 -42 -43 0
-2 -25 -42 -54 0
-2 -25 -42 -60 0
-2 -25 -43 -54 0
-2 -25 -43 -60 0
-2 -25 -54 -60 0
-2 -29 -42 -43 0
-2 -29 -42 -54 0
-2 -29 -42 -60 0
-2 -29 -43 -54 0
-2 -29 -43 -60 0
-2 -29 -54 -60 0
-2 -42 -43 -54 0
-2 -42 -43 -60 0
-2 -42 -54 -60 0
-2 -43 -54 -60 0
-12 -20 -25 -29 0
-12 -20 -25 -42 0
-12 -20 -25 -43 0
-12 -20 -25 -54 0
-12 -20 -25 -60 0
-12 -20 -29 -42 0
-12 -20 -29 -43 0
-12 -20 -29 -54 0
-12 -20 -29 -60 0
-12 -20 -42 -43 0
-12 -20 -42 -54 0
-12 -20 -42 -60 0
-12 -20 -43 -54 0
-12 -20 -43 -60 0
-12 -20 -54 -60 0
-12 -25 -29 -42 0
-12 -25 -29 -43 0
-12 -25 -29 -54 0
-12 -25 -29 -60 0
-12 -25 -42 -43 0
-12 -25 -42 -54 0
-12 -25 -42 -60 0
-12 -25 -43 -54 0
-12 -25 -43 -60 0
-12 -25 -54 -60 0
-12 -29 -42 -43 0
-12 -29 -42 -54 0
-12 -29 -42 -60 0
-12 -29 -43 -54 0
-12 -29 -43 -60 0
-12 -29 -54 -60 0
-12 -42 -43 -54 0
-12 -42 -43 -60 0
-12 -42 -54 -60 0
-12 -43 -54 -60 0
-20 -25 -29 -42 0
-20 -25 -29 -43 0
-20 -25 -29 -54 0
-20 -25 -29 -60 0
-20 -25 -42 -43 0
-20 -25 -42 -54 0
-20 -25 -42 -60 0
-20 -25 -43 -54 0
-20 -25 -43 -60 0
-20 -25 -54 -60 0
-20 -29 -42 -43 0
-20 -29 -42 -54 0
-20 -29 -42 -60 0
-20 -29 -43 -54 0
-20 -29 -43 -60 0
-20 -29 -54 -60 0
-20 -42 -43 -54 0
-20 -42 -43 -60 0
-20 -42 -54 -60 0
-20 -43 -54 -60 0
-25 -29 -42 -43 0
-25 -29 -42 -54 0
-25 -29 -42 -60 0
-25 -29 -43 -54 0
-25 -29 -43 -60 0
-25 -29 -54 -60 0
-25 -42 -43 -54 0
-25 -42 -43 -60 0
-25 -42 -54 -60 0
-25 -43 -54 -60 0
-29 -42 -43 -54 0
-29 -42 -43 -60 0
-29 -42 -54 -60 0
-29 -43 -54 -60 0
-42 -43 -54 -60 0
-1 -9 -21 -28 0
-1 -9 -21 -35 0
-1 -9 -21 -36 0
-1 -9 -21 -47 0
-1 -9 -21 -50 0
-1 -9 -21 -60 0
-1 -9 -28 -35 0
-1 -9 -28 -36 0
-1 -9 -28 -47 0
-1 -9 -28 -50 0
-1 -9 -28 -60 0
-1 -9 -35 -36 0
-1 -9 -35 -47 0
-1 -9 -35 -50 0
-1 -9 -35 -60 0
-1 -9 -36 -47 0
-1 -9 -36 -50 0
-1 -9 -36 -60 0
-1 -9 -47 -50 0
-1 -9 -47 -60 0
-1 -9 -50 -60 0
-1 -21 -28 -35 0
-1 -21 -28 -36 0
-1 -21 -28 -47 0
-1 -21 -28 -50 0
-1 -21 -28 -60 0
-1 -21 -35 -36 0
-1 -21 -35 -47 0
-1 -21 -35 -50 0
-1 -21 -35 -60 0
-1 -21 -36 -47 0
-1 -21 -36 -50 0
-1 -21 -36 -60 0
-1 -21 -47 -50 0
-1 -21 -47 -60 0
-1 -21 -50 -60 0
-1 -28 -35 -36 0
-1 -28 -35 -47 0
-1 -28 -35 -50 0
-1 -28 -35 -60 0
-1 -28 -36 -47 0
-1 -28 -36 -50 0
-1 -28 -36 -60 0
-1 -28 -47 -50 0
-1 -28 -47 -60 0
-1 -28 -50 -60 0
-1 -35 -36 -47 0
-1 -35 -36 -50 0
-1 -35 -36 -60 0
-1 -35 -47 -50 0
-1 -35 -47 -60 0
-1 -35 -50 -60 0
-1 -36 -47 -50 0
-1 -36 -47 -60 0
-1 -36 -50 -60 0
-1 -47 -50 -60 0
-9 -21 -28 -35 0
-9 -21 -28 -36 0
-9 -21 -28 -47 0
-9 -21 -28 -50 0
-9 -21 -28 -60 0
-9 -21 -35 -36 0
-9 -21 -35 -47 0
-9 -21 -35 -50 0
-9 -21 -35 -60 0
-9 -21 -36 -47 0
-9 -21 -36 -50 0
-9 -21 -36 -60 0
-9 -21 -47 -50 0
-9 -21 -47 -60 0
-9 -21 -50 -60 0
-9 -28 -35 -36 0
-9 -28 -35 -47 0
-9 -28 -35 -50 0
-9 -28 -35 -60 0
-9 -28 -36 -47 0
-9 -28 -36 -50 0
-9 -28 -36 -60 0
-9 -28 -47 -50 0
-9 -28 -47 -60 0
-9 -28 -50 -60 0
-9 -35 -36 -47 0
-9 -35 -36 -50 0
-9 -35 -36 -60 0
-9 -35 -47 -50 0
-9 -35 -47 -60 0
-9 -35 -50 -60 0
-9 -36 -47 -50 0
-9 -36 -47 -60 0
-9 -36 -50 -60 0
-9 -47 -50 -60 0
-21 -28 -35 -36 0
-21 -28 -35 -47 0
-21 -28 -35 -50 0
-21 -28 -35 -60 0
-21 -28 -36 -47 0
-21 -28 -36 -50 0
-21 -28 -36 -60 0
-21 -28 -47 -50 0
-21 -28 -47 -60 0
-21 -28 -50 -60 0
-21 -35 -36 -47 0
-21 -35 -36 -50 0
-21 -35 -36 -60 0
-21 -35 -47 -50 0
-21 -35 -47 -60 0
-21 -35 -50 -60 0
-21 -36 -47 -50 0
-21 -36 -47 -60 0
-21 -36 -50 -60 0
-21 -47 -50 -60 0
-28 -35 -36 -47 0
-28 -35 -36 -50 0
-28 -35 -36 -60 0
-28 -35 -47 -50 0
-28 -35 -47 -60 0
-28 -35 -50 -60 0
-28 -36 -47 -50 0
-28 -36 -47 -60 0
-28 -36 -50 -60 0
-28 -47 -50 -60 0
-35 -36 -47 -50 0
-35 -36 -47 -60 0
-35 -36 -50 -60 0
-35 -47 -50 -60 0
-36 -47 -50 -60 0
-1 -14 -18 -25 0
-1 -14 -18 -31 0
-1 -14 -18 -41 0
-1 -14 -18 -48 0
-1 -14 -18 -52 0
-1 -14 -18 -60 0
-1 -14 -25 -31 0
-1 -14 -25 -41 0
-1 -14 -25 -48 0
-1 -14 -25 -52 0
-1 -14 -25 -60 0
-1 -14 -31 -41 0
-1 -14 -31 -48 0
-1 -14 -31 -52 0
-1 -14 -31 -60 0
-1 -14 -41 -48 0
-1 -14 -41 -52 0
-1 -14 -41 -60 0
-1 -14 -48 -52 0
-1 -14 -48 -60 0
-1 -14 -52 -60 0
-1 -18 -25 -31 0
-1 -18 -25 -41 0
-1 -18 -25 -48 0
-1 -18 -25 -52 0
-1 -18 -25 -60 0
-1 -18 -31 -41 0
-1 -18 -31 -48 0
-1 -18 -31 -52 0
-1 -18 -31 -60 0
-1 -18 -41 -48 0
-1 -18 -41 -52 0
-1 -18 -41 -60 0
-1 -18 -48 -52 0
-1 -18 -48 -60 0
-1 -18 -52 -60 0
-1 -25 -31 -41 0
-1 -25 -31 -48 0
-1 -25 -31 -52 0
-1 -25 -31 -60 0
-1 -25 -41 -48 0
-1 -25 -41 -52 0
-1 -25 -41 -60 0
-1 -25 -48 -52 0
-1 -25 -48 -60 0
-1 -25 -52 -60 0
-1 -31 -41 -48 0
-1 -31 -41 -52 0
-1 -31 -41 -60 0
-1 -31 -48 -52 0
-1 -31 -48 -60 0
-1 -31 -52 -60 0
-1 -41 -48 -52 0
-1 -41 -48 -60 0
-1 -41 -52 -60 0
-1 -48 -52 -60 0
-14 -18 -25 -31 0
-14 -18 -25 -41 0
-14 -18 -25 -48 0
-14 -18 -25 -52 0
-14 -18 -25 -60 0
-14 -18 -31 -41 0
-14 -18 -31 -48 0
-14 -18 -31 -52 0
-14 -18 -31 -60 0
-14 -18 -41 -48 0
-14 -18 -41 -52 0
-14 -18 -41 -60 0
-14 -18 -48 -52 0
-14 -18 -48 -60 0
-14 -18 -52 -60 0
-14 -25 -31 -41 0
-14 -25 -31 -48 0
-14 -25 -31 -52 0
-14 -25 -31 -60 0
-14 -25 -41 -48 0
-14 -25 -41 -52 0
-14 -25 -41 -60 0
-14 -25 -48 -52 0
-14 -25 -48 -60 0
-14 -25 -52 -60 0
-14 -31 -41 -48 0
-14 -31 -41 -52 0
-14 -31 -41 -60 0
-14 -31 -48 -52 0
-14 -31 -48 -60 0
-14 -31 -52 -60 0
-14 -41 -48 -52 0
-14 -41 -48 -60 0
-14 -41 -52 -60 0
-14 -48 -52 -60 0
-18 -25 -31 -41 0
-18 -25 -31 -48 0
-18 -25 -31 -52 0
-18 -25 -31 -60 0
-18 -25 -41 -48 0
-18 -25 -41 -52 0
-18 -25 -41 -60 0
-18 -25 -48 -52 0
-18 -25 -48 -60 0
-18 -25 -52 -60 0
-18 -31 -41 -48 0
-18 -31 -41 -52 0
-18 -31 -41 -60 0
-18 -31 -48 -52 0
-18 -31 -48 -60 0
-18 -31 -52 -60 0
-18 -41 -48 -52 0
-18 -41 -48 -60 0
-18 -41 -52 -60 0
-18 -48 -52 -60 0
-25 -31 -41 -48 0
-25 -31 -41 -52 0
-25 -31 -41 -60 0
-25 -31 -48 -52 0
-25 -31 -48 -60 0
-25 -31 -52 -60 0
-25 -41 -48 -52 0
-25 -41 -48 -60 0
-25 -41 -52 -60 0
-25 -48 -52 -60 0
-31 -41 -48 -52 0
-31 -41 -48 -60 0
-31 -41 -52 -60 0
-31 -48 -52 -60 0
-41 -48 -52 -60 0
-5 -13 -21 -28 0
-5 -13 -21 -35 0
-5 -13 -21 -41 0
-5 -13 -21 -49 0
-5 -13 -21 -54 0
-5 -13 -21 -63 0
-5 -13 -28 -35 0
-5 -13 -28 -41 0
-5 -13 -28 -49 0
-5 -13 -28 -54 0
-5 -13 -28 -63 0
-5 -13 -35 -41 0
-5 -13 -35 -49 0
-5 -13 -35 -54 0
-5 -13 -35 -63 0
-5 -13 -41 -49 0
-5 -13 -41 -54 0
-5 -13 -41 -63 0
-5 -13 -49 -54 0
-5 -13 -49 -63 0
-5 -13 -54 -63 0
-5 -21 -28 -35 0
-5 -21 -28 -41 0
-5 -21 -28 -49 0
-5 -21 -28 -54 0
-5 -21 -28 -63 0
-5 -21 -35 -41 0
-5 -21 -35 -49 0
-5 -21 -35 -54 0
-5 -21 -35 -63 0
-5 -21 -41 -49 0
-5 -21 -41 -54 0
-5 -21 -41 -63 0
-5 -21 -49 -54 0
-5 -21 -49 -63 0
-5 -21 -54 -63 0
-5 -28 -35 -41 0
-5 -28 -35 -49 0
-5 -28 -35 -54 0
-5 -28 -35 -63 0
-5 -28 -41 -49 0
-5 -28 -41 -54 0
-5 -28 -41 -63 0
-5 -28 -49 -54 0
-5 -28 -49 -63 0
-5 -28 -54 -63 0
-5 -35 -41 -49 0
-5 -35 -41 -54 0
-5 -35 -41 -63 0
-5 -35 -49 -54 0
-5 -35 -49 -63 0
-5 -35 -54 -63 0
-5 -41 -49 -54 0
-5 -41 -49 -63 0
-5 -41 -54 -63 0
-5 -49 -54 -63 0
-13 -21 -28 -35 0
-13 -21 -28 -41 0
-13 -21 -28 -49 0
-13 -21 -28 -54 0
-13 -21 -28 -63 0
-13 -21 -35 -41 0
-13 -21 -35 -49 0
-13 -21 -35 -54 0
-13 -21 -35 -63 0
-13 -21 -41 -49 0
-13 -21 -41 -54 0
-13 -21 -41 -63 0
-13 -21 -49 -54 0
-13 -21 -49 -63 0
-13 -21 -54 -63 0
-13 -28 -35 -41 0
-13 -28 -35 -49 0
-13 -28 -35 -54 0
-13 -28 -35 -63 0
-13 -28 -41 -49 0
-13 -28 -41 -54 0
-13 -28 -41 -63 0
-13 -28 -49 -54 0
-13 -28 -49 -63 0
-13 -28 -54 -63 0
-13 -35 -41 -49 0
-13 -35 -41 -54 0
-13 -35 -41 -63 0
-13 -35 -49 -54 0
-13 -35 -49 -63 0
-13 -35 -54 -63 0
-13 -41 -49 -54 0
-13 -41 -49 -63 0
-13 -41 -54 -63 0
-13 -49 -54 -63 0
-21 -28 -35 -41 0
-21 -28 -35 -49 0
-21 -28 -35 -54 0
-21 -28 -35 -63 0
-21 -28 -41 -49 0
-21 -28 -41 -54 0
-21 -28 -41 -63 0
-21 -28 -49 -54 0
-21 -28 -49 -63 0
-21 -28 -54 -63 0
-21 -35 -41 -49 0
-21 -35 -41 -54 0
-21 -35 -41 -63 0
-21 -35 -49 -54 0
-21 -35 -49 -63 0
-21 -35 -54 -63 0
-21 -41 -49 -54 0
-21 -41 -49 -63 0
-21 -41 -54 -63 0
-21 -49 -54 -63 0
-28 -35 -41 -49 0
-28 -35 -41 -54 0
-28 -35 -41 -63 0
-28 -35 -49 -54 0
-28 -35 -49 -63 0
-28 -35 -54 -63 0
-28 -41 -49 -54 0
-28 -41 -49 -63 0
-28 -41 -54 -63 0
-28 -49 -54 -63 0
-35 -41 -49 -54 0
-35 -41 -49 -63 0
-35 -41 -54 -63 0
-35 -49 -54 -63 0
-41 -49 -54 -63 0
-4 -9 -20 -25 0
-4 -9 -20 -32 0
-4 -9 -20 -39 0
-4 -9 -20 -48 0
-4 -9 -20 -51 0
-4 -9 -20 -63 0
-4 -9 -25 -32 0
-4 -9 -25 -39 0
-4 -9 -25 -48 0
-4 -9 -25 -51 0
-4 -9 -25 -63 0
-4 -9 -32 -39 0
-4 -9 -32 -48 0
-4 -9 -32 -51 0
-4 -9 -32 -63 0
-4 -9 -39 -48 0
-4 -9 -39 -51 0
-4 -9 -39 -63 0
-4 -9 -48 -51 0
-4 -9 -48 -63 0
-4 -9 -51 -63 0
-4 -20 -25 -32 0
-4 -20 -25 -39 0
-4 -20 -25 -48 0
-4 -20 -25 -51 0
-4 -20 -25 -63 0
-4 -20 -32 -39 0
-4 -20 -32 -48 0
-4 -20 -32 -51 0
-4 -20 -32 -63 0
-4 -20 -39 -48 0
-4 -20 -39 -51 0
-4 -20 -39 -63 0
-4 -20 -48 -51 0
-4 -20 -48 -63 0
-4 -20 -51 -63 0
-4 -25 -32 -39 0
-4 -25 -32 -48 0
-4 -25 -32 -51 0
-4 -25 -32 -63 0
-4 -25 -39 -48 0
-4 -25 -39 -51 0
-4 -25 -39 -63 0
-4 -25 -48 -51 0
-4 -25 -48 -63 0
-4 -25 -51 -63 0
-4 -32 -39 -48 0
-4 -32 -39 -51 0
-4 -32 -39 -63 0
-4 -32 -48 -51 0
-4 -32 -48 -63 0
-4 -32 -51 -63 0
-4 -39 -48 -51 0
-4 -39 -48 -63 0
-4 -39 -51 -63 0
-4 -48 -51 -63 0
-9 -20 -25 -32 0
-9 -20 -25 -39 0
-9 -20 -25 -48 0
-9 -20 -25 -51 0
-9 -20 -25 -63 0
-9 -20 -32 -39 0
-9 -20 -32 -48 0
-9 -20 -32 -51 0
-9 -20 -32 -63 0
-9 -20 -39 -48 0
-9 -20 -39 -51 0
-9 -20 -39 -63 0
-9 -20 -48 -51 0
-9 -20 -48 -63 0
-9 -20 -51 -63 0
-9 -25 -32 -39 0
-9 -25 -32 -48 0
-9 -25 -32 -51 0
-9 -25 -32 -63 0
-9 -25 -39 -48 0
-9 -25 -39 -51 0
-9 -25 -39 -63 0
-9 -25 -48 -51 0
-9 -25 -48 -63 0
-9 -25 -51 -63 0
-9 -32 -39 -48 0
-9 -32 -39 -51 0
-9 -32 -39 -63 0
-9 -32 -48 -51 0
-9 -32 -48 -63 0
-9 -32 -51 -63 0
-9 -39 -48 -51 0
-9 -39 -48 -63 0
-9 -39 -51 -63 0
-9 -48 -51 -63 0
-20 -25 -32 -39 0
-20 -25 -32 -48 0
-20 -25 -32 -51 0
-20 -25 -32 -63 0
-20 -25 -39 -48 0
-20 -25 -39 -51 0
-20 -25 -39 -63 0
-20 -25 -48 -51 0
-20 -25 -48 -63 0
-20 -25 -51 -63 0
-20 -32 -39 -48 0
-20 -32 -39 -51 0
-20 -32 -39 -63 0
-20 -32 -48 -51 0
-20 -32 -48 -63 0
-20 -32 -51 -63 0
-20 -39 -48 -51 0
-20 -39 -48 -63 0
-20 -39 -51 -63 0
-20 -48 -51 -63 0
-25 -32 -39 -48 0
-25 -32 -39 -51 0
-25 -32 -39 -63 0
-25 -32 -48 -51 0
-25 -32 -48 -63 0
-25 -32 -51 -63 0
-25 -39 -48 -51 0
-25 -39 -48 -63 0
-25 -39 -51 -63 0
-25 -48 -51 -63 0
-32 -39 -48 -51 0
-32 -39 -48 -63 0
-32 -39 -51 -63 0
-32 -48 -51 -63 0
-39 -48 -51 -63 0
-4 -13 -15 -24 0
-4 -13 -15 -33 0
-4 -13 -15 -36 0
-4 -13 -15 -44 0
-4 -13 -15 -53 0
-4 -13 -15 -63 0
-4 -13 -24 -33 0
-4 -13 -24 -36 0
-4 -13 -24 -44 0
-4 -13 -24 -53 0
-4 -13 -24 -63 0
-4 -13 -33 -36 0
-4 -13 -33 -44 0
-4 -13 -33 -53 0
-4 -13 -33 -63 0
-4 -13 -36 -44 0
-4 -13 -36 -53 0
-4 -13 -36 -63 0
-4 -13 -44 -53 0
-4 -13 -44 -63 0
-4 -13 -53 -63 0
-4 -15 -24 -33 0
-4 -15 -24 -36 0
-4 -15 -24 -44 0
-4 -15 -24 -53 0
-4 -15 -24 -63 0
-4 -15 -33 -36 0
-4 -15 -33 -44 0
-4 -15 -33 -53 0
-4 -15 -33 -63 0
-4 -15 -36 -44 0
-4 -15 -36 -53 0
-4 -15 -36 -63 0
-4 -15 -44 -53 0
-4 -15 -44 -63 0
-4 -15 -53 -63 0
-4 -24 -33 -36 0
-4 -24 -33 -44 0
-4 -24 -33 -53 0
-4 -24 -33 -63 0
-4 -24 -36 -44 0
-4 -24 -36 -53 0
-4 -24 -36 -63 0
-4 -24 -44 -53 0
-4 -24 -44 -63 0
-4 -24 -53 -63 0
-4 -33 -36 -44 0
-4 -33 -36 -53 0
-4 -33 -36 -63 0
-4 -33 -44 -53 0
-4 -33 -44 -63 0
-4 -33 -53 -63 0
-4 -36 -44 -53 0
-4 -36 -44 -63 0
-4 -36 -53 -63 0
-4 -44 -53 -63 0
-13 -15 -24 -33 0
-13 -15 -24 -36 0
-13 -15 -24 -44 0
-13 -15 -24 -53 0
-13 -15 -24 -63 0
-13 -15 -33 -36 0
-13 -15 -33 -44 0
-13 -15 -33 -53 0
-13 -15 -33 -63 0
-13 -15 -36 -44 0
-13 -15 -36 -53 0
-13 -15 -36 -63 0
-13 -15 -44 -53 0
-13 -15 -44 -63 0
-13 -15 -53 -63 0
-13 -24 -33 -36 0
-13 -24 -33 -44 0
-13 -24 -33 -53 0
-13 -24 -33 -63 0
-13 -24 -36 -44 0
-13 -24 -36 -53 0
-13 -24 -36 -63 0
-13 -24 -44 -53 0
-13 -24 -44 -63 0
-13 -24 -53 -63 0
-13 -33 -36 -44 0
-13 -33 -36 -53 0
-13 -33 -36 -63 0
-13 -33 -44 -53 0
-13 -33 -44 -63 0
-13 -33 -53 -63 0
-13 -36 -44 -53 0
-13 -36 -44 -63 0
-13 -36 -53 -63 0
-13 -44 -53 -63 0
-15 -24 -33 -36 0
-15 -24 -33 -44 0
-15 -24 -33 -53 0
-15 -24 -33 -63 0
-15 -24 -36 -44 0
-15 -24 -36 -53 0
-15 -24 -36 -63 0
-15 -24 -44 -53 0
-15 -24 -44 -63 0
-15 -24 -53 -63 0
-15 -33 -36 -44 0
-15 -33 -36 -53 0
-15 -33 -36 -63 0
-15 -33 -44 -53 0
-15 -33 -44 -63 0
-15 -33 -53 -63 0
-15 -36 -44 -53 0
-15 -36 -44 -63 0
-15 -36 -53 -63 0
-15 -44 -53 -63 0
-24 -33 -36 -44 0
-24 -33 -36 -53 0
-24 -33 -36 -63 0
-24 -33 -44 -53 0
-24 -33 -44 -63 0
-24 -33 -53 -63 0
-24 -36 -44 -53 0
-24 -36 -44 -63 0
-24 -36 -53 -63 0
-24 -44 -53 -63 0
-33 -36 -44 -53 0
-33 -36 -44 -63 0
-33 -36 -53 -63 0
-33 -44 -53 -63 0
-36 -44 -53 -63 0
-3 -12 -20 -25 0
-3 -12 -20 -29 0
-3 -12 -20 -37 0
-3 -12 -20 -47 0
-3 -12 -20 -53 0
-3 -12 -20 -63 0
-3 -12 -25 -29 0
-3 -12 -25 -37 0
-3 -12 -25 -47 0
-3 -12 -25 -53 0
-3 -12 -25 -63 0
-3 -12 -29 -37 0
-3 -12 -29 -47 0
-3 -12 -29 -53 0
-3 -12 -29 -63 0
-3 -12 -37 -47 0
-3 -12 -37 -53 0
-3 -12 -37 -63 0
-3 -12 -47 -53 0
-3 -12 -47 -63 0
-3 -12 -53 -63 0
-3 -20 -25 -29 0
-3 -20 -25 -37 0
-3 -20 -25 -47 0
-3 -20 -25 -53 0
-3 -20 -25 -63 0
-3 -20 -29 -37 0
-3 -20 -29 -47 0
-3 -20 -29 -53 0
-3 -20 -29 -63 0
-3 -20 -37 -47 0
-3 -20 -37 -53 0
-3 -20 -37 -63 0
-3 -20 -47 -53 0
-3 -20 -47 -63 0
-3 -20 -53 -63 0
-3 -25 -29 -37 0
-3 -25 -29 -47 0
-3 -25 -29 -53 0
-3 -25 -29 -63 0
-3 -25 -37 -47 0
-3 -25 -37 -53 0
-3 -25 -37 -63 0
-3 -25 -47 -53 0
-3 -25 -47 -63 0
-3 -25 -53 -63 0
-3 -29 -37 -47 0
-3 -29 -37 -53 0
-3 -29 -37 -63 0
-3 -29 -47 -53 0
-3 -29 -47 -63 0
-3 -29 -53 -63 0
-3 -37 -47 -53 0
-3 -37 -47 -63 0
-3 -37 -53 -63 0
-3 -47 -53 -63 0
-12 -20 -25 -29 0
-12 -20 -25 -37 0
-12 -20 -25 -47 0
-12 -20 -25 -53 0
-12 -20 -25 -63 0
-12 -20 -29 -37 0
-12 -20 -29 -47 0
-12 -20 -29 -53 0
-12 -20 -29 -63 0
-12 -20 -37 -47 0
-12 -20 -37 -53 0
-12 -20 -37 -63 0
-12 -20 -47 -53 0
-12 -20 -47 -63 0
-12 -20 -53 -63 0
-12 -25 -29 -37 0
-12 -25 -29 -47 0
-12 -25 -29 -53 0
-12 -25 -29 -63 0
-12 -25 -37 -47 0
-12 -25 -37 -53 0
-12 -25 -37 -63 0
-12 -25 -47 -53 0
-12 -25 -47 -63 0
-12 -25 -53 -63 0
-12 -29 -37 -47 0
-12 -29 -37 -53 0
-12 -29 -37 -63 0
-12 -29 -47 -53 0
-12 -29 -47 -63 0
-12 -29 -53 -63 0
-12 -37 -47 -53 0
-12 -37 -47 -63 0
-12 -37 -53 -63 0
-12 -47 -53 -63 0
-20 -25 -29 -37 0
-20 -25 -29 -47 0
-20 -25 -29 -53 0
-20 -25 -29 -63 0
-20 -25 -37 -47 0
-20 -25 -37 -53 0
-20 -25 -37 -63 0
-20 -25 -47 -53 0
-20 -25 -47 -63 0
-20 -25 -53 -63 0
-20 -29 -37 -47 0
-20 -29 -37 -53 0
-20 -29 -37 -63 0
-20 -29 -47 -53 0
-20 -29 -47 -63 0
-20 -29 -53 -63 0
-20 -37 -47 -53 0
-20 -37 -47 -63 0
-20 -37 -53 -63 0
-20 -47 -53 -63 0
-25 -29 -37 -47 0
-25 -29 -37 -53 0
-25 -29 -37 -63 0
-25 -29 -47 -53 0
-25 -29 -47 -63 0
-25 -29 -53 -63 0
-25 -37 -47 -53 0
-25 -37 -47 -63 0
-25 -37 -53 -63 0
-25 -47 -53 -63 0
-29 -37 -47 -53 0
-29 -37 -47 -63 0
-29 -37 -53 -63 0
-29 -47 -53 -63 0
-37 -47 -53 -63 0
-6 -12 -16 -23 0
-6 -12 -16 -33 0
-6 -12 -16 -41 0
-6 -12 -16 -47 0
-6 -12 -16 -55 0
-6 -12 -16 -62 0
-6 -12 -23 -33 0
-6 -12 -23 -41 0
-6 -12 -23 -47 0
-6 -12 -23 -55 0
-6 -12 -23 -62 0
-6 -12 -33 -41 0
-6 -12 -33 -47 0
-6 -12 -33 -55 0
-6 -12 -33 -62 0
-6 -12 -41 -47 0
-6 -12 -41 -55 0
-6 -12 -41 -62 0
-6 -12 -47 -55 0
-6 -12 -47 -62 0
-6 -12 -55 -62 0
-6 -16 -23 -33 0
-6 -16 -23 -41 0
-6 -16 -23 -47 0
-6 -16 -23 -55 0
-6 -16 -23 -62 0
-6 -16 -33 -41 0
-6 -16 -33 -47 0
-6 -16 -33 -55 0
-6 -16 -33 -62 0
-6 -16 -41 -47 0
-6 -16 -41 -55 0
-6 -16 -41 -62 0
-6 -16 -47 -55 0
-6 -16 -47 -62 0
-6 -16 -55 -62 0
-6 -23 -33 -41 0
-6 -23 -33 -47 0
-6 -23 -33 -55 0
-6 -23 -33 -62 0
-6 -23 -41 -47 0
-6 -23 -41 -55 0
-6 -23 -41 -62 0
-6 -23 -47 -55 0
-6 -23 -47 -62 0
-6 -23 -55 -62 0
-6 -33 -41 -47 0
-6 -33 -41 -55 0
-6 -33 -41 -62 0
-6 -33 -47 -55 0
-6 -33 -47 -62 0
-6 -33 -55 -62 0
-6 -41 -47 -55 0
-6 -41 -47 -62 0
-6 -41 -55 -62 0
-6 -47 -55 -62 0
-12 -16 -23 -33 0
-12 -16 -23 -41 0
-12 -16 -23 -47 0
-12 -16 -23 -55 0
-12 -16 -23 -62 0
-12 -16 -33 -41 0
-12 -16 -33 -47 0
-12 -16 -33 -55 0
-12 -16 -33 -62 0
-12 -16 -41 -47 0
-12 -16 -41 -55 0
-12 -16 -41 -62 0
-12 -16 -47 -55 0
-12 -16 -47 -62 0
-12 -16 -55 -62 0
-12 -23 -33 -41 0
-12 -23 -33 -47 0
-12 -23 -33 -55 0
-12 -23 -33 -62 0
-12 -23 -41 -47 0
-12 -23 -41 -55 0
-12 -23 -41 -62 0
-12 -23 -47 -55 0
-12 -23 -47 -62 0
-12 -23 -55 -62 0
-12 -33 -41 -47 0
-12 -33 -41 -55 0
-12 -33 -41 -62 0
-12 -33 -47 -55 0
-12 -33 -47 -62 0
-12 -33 -55 -62 0
-12 -41 -47 -55 0
-12 -41 -47 -62 0
-12 -41 -55 -62 0
-12 -47 -55 -62 0
-16 -23 -33 -41 0
-16 -23 -33 -47 0
-16 -23 -33 -55 0
-16 -23 -33 -62 0
-16 -23 -41 -47 0
-16 -23 -41 -55 0
-16 -23 -41 -62 0
-16 -23 -47 -55 0
-16 -23 -47 -62 0
-16 -23 -55 -62 0
-16 -33 -41 -47 0
-16 -33 -41 -55 0
-16 -33 -41 -62 0
-16 -33 -47 -55 0
-16 -33 -47 -62 0
-16 -33 -55 -62 0
-16 -41 -47 -55 0
-16 -41 -47 -62 0
-16 -41 -55 -62 0
-16 -47 -55 -62 0
-23 -33 -41 -47 0
-23 -33 -41 -55 0
-23 -33 -41 -62 0
-23 -33 -47 -55 0
-23 -33 -47 -62 0
-23 -33 -55 -62 0
-23 -41 -47 -55 0
-23 -41 -47 -62 0
-23 -41 -55 -62 0
-23 -47 -55 -62 0
-33 -41 -47 -55 0
-33 -41 -47 -62 0
-33 -41 -55 -62 0
-33 -47 -55 -62 0
-41 -47 -55 -62 0
-4 -12 -20 -22 0
-4 -12 -20 -30 0
-4 -12 -20 -36 0
-4 -12 -20 -45 0
-4 -12 -20 -54 0
-4 -12 -20 -59 0
-4 -12 -22 -30 0
-4 -12 -22 -36 0
-4 -12 -22 -45 0
-4 -12 -22 -54 0
-4 -12 -22 -59 0
-4 -12 -30 -36 0
-4 -12 -30 -45 0
-4 -12 -30 -54 0
-4 -12 -30 -59 0
-4 -12 -36 -45 0
-4 -12 -36 -54 0
-4 -12 -36 -59 0
-4 -12 -45 -54 0
-4 -12 -45 -59 0
-4 -12 -54 -59 0
-4 -20 -22 -30 0
-4 -20 -22 -36 0
-4 -20 -22 -45 0
-4 -20 -22 -54 0
-4 -20 -22 -59 0
-4 -20 -30 -36 0
-4 -20 -30 -45 0
-4 -20 -30 -54 0
-4 -20 -30 -59 0
-4 -20 -36 -45 0
-4 -20 -36 -54 0
-4 -20 -36 -59 0
-4 -20 -45 -54 0
-4 -20 -45 -59 0
-4 -20 -54 -59 0
-4 -22 -30 -36 0
-4 -22 -30 -45 0
-4 -22 -30 -54 0
-4 -22 -30 -59 0
-4 -22 -36 -45 0
-4 -22 -36 -54 0
-4 -22 -36 -59 0
-4 -22 -45 -54 0
-4 -22 -45 -59 0
-4 -22 -54 -59 0
-4 -30 -36 -45 0
-4 -30 -36 -54 0
-4 -30 -36 -59 0
-4 -30 -45 -54 0
-4 -30 -45 -59 0
-4 -30 -54 -59 0
-4 -36 -45 -54 0
-4 -36 -45 -59 0
-4 -36 -54 -59 0
-4 -45 -54 -59 0
-12 -20 -22 -30 0
-12 -20 -22 -36 0
-12 -20 -22 -45 0
-12 -20 -22 -54 0
-12 -20 -22 -59 0
-12 -20 -30 -36 0
-12 -20 -30 -45 0
-12 -20 -30 -54 0
-12 -20 -30 -59 0
-12 -20 -36 -45 0
-12 -20 -36 -54 0
-12 -20 -36 -59 0
-12 -20 -45 -54 0
-12 -20 -45 -59 0
-12 -20 -54 -59 0
-12 -22 -30 -36 0
-12 -22 -30 -45 0
-12 -22 -30 -54 0
-12 -22 -30 -59 0
-12 -22 -36 -45 0
-12 -22 -36 -54 0
-12 -22 -36 -59 0
-12 -22 -45 -54 0
-12 -22 -45 -59 0
-12 -22 -54 -59 0
-12 -30 -36 -45 0
-12 -30 -36 -54 0
-12 -30 -36 -59 0
-12 -30 -45 -54 0
-12 -30 -45 -59 0
-12 -30 -54 -59 0
-12 -36 -45 -54 0
-12 -36 -45 -59 0
-12 -36 -54 -59 0
-12 -45 -54 -59 0
-20 -22 -30 -36 0
-20 -22 -30 -45 0
-20 -22 -30 -54 0
-20 -22 -30 -59 0
-20 -22 -36 -45 0
-20 -22 -36 -54 0
-20 -22 -36 -59 0
-20 -22 -45 -54 0
-20 -22 -45 -59 0
-20 -22 -54 -59 0
-20 -30 -36 -45 0
-20 -30 -36 -54 0
-20 -30 -36 -59 0
-20 -30 -45 -54 0
-20 -30 -45 -59 0
-20 -30 -54 -59 0
-20 -36 -45 -54 0
-20 -36 -45 -59 0
-20 -36 -54 -59 0
-20 -45 -54 -59 0
-22 -30 -36 -45 0
-22 -30 -36 -54 0
-22 -30 -36 -59 0
-22 -30 -45 -54 0
-22 -30 -45 -59 0
-22 -30 -54 -59 0
-22 -36 -45 -54 0
-22 -36 -45 -59 0
-22 -36 -54 -59 0
-22 -45 -54 -59 0
-30 -36 -45 -54 0
-30 -36 -45 -59 0
-30 -36 -54 -59 0
-30 -45 -54 -59 0
-36 -45 -54 -59 0
-5 -11 -20 -27 0
-5 -11 -20 -31 0
-5 -11 -20 -37 0
-5 -11 -20 -44 0
-5 -11 -20 -51 0
-5 -11 -20 -60 0
-5 -11 -27 -31 0
-5 -11 -27 -37 0
-5 -11 -27 -44 0
-5 -11 -27 -51 0
-5 -11 -27 -60 0
-5 -11 -31 -37 0
-5 -11 -31 -44 0
-5 -11 -31 -51 0
-5 -11 -31 -60 0
-5 -11 -37 -44 0
-5 -11 -37 -51 0
-5 -11 -37 -60 0
-5 -11 -44 -51 0
-5 -11 -44 -60 0
-5 -11 -51 -60 0
-5 -20 -27 -31 0
-5 -20 -27 -37 0
-5 -20 -27 -44 0
-5 -20 -27 -51 0
-5 -20 -27 -60 0
-5 -20 -31 -37 0
-5 -20 -31 -44 0
-5 -20 -31 -51 0
-5 -20 -31 -60 0
-5 -20 -37 -44 0
-5 -20 -37 -51 0
-5 -20 -37 -60 0
-5 -20 -44 -51 0
-5 -20 -44 -60 0
-5 -20 -51 -60 0
-5 -27 -31 -37 0
-5 -27 -31 -44 0
-5 -27 -31 -51 0
-5 -27 -31 -60 0
-5 -27 -37 -44 0
-5 -27 -37 -51 0
-5 -27 -37 -60 0
-5 -27 -44 -51 0
-5 -27 -44 -60 0
-5 -27 -51 -60 0
-5 -31 -37 -44 0
-5 -31 -37 -51 0
-5 -31 -37 -60 0
-5 -31 -44 -51 0
-5 -31 -44 -60 0
-5 -31 -51 -60 0
-5 -37 -44 -51 0
-5 -37 -44 -60 0
-5 -37 -51 -60 0
-5 -44 -51 -60 0
-11 -20 -27 -31 0
-11 -20 -27 -37 0
-11 -20 -27 -44 0
-11 -20 -27 -51 0
-11 -20 -27 -60 0
-11 -20 -31 -37 0
-11 -20 -31 -44 0
-11 -20 -31 -51 0
-11 -20 -31 -60 0
-11 -20 -37 -44 0
-11 -20 -37 -51 0
-11 -20 -37 -60 0
-11 -20 -44 -51 0
-11 -20 -44 -60 0
-11 -20 -51 -60 0
-11 -27 -31 -37 0
-11 -27 -31 -44 0
-11 -27 -31 -51 0
-11 -27 -31 -60 0
-11 -27 -37 -44 0
-11 -27 -37 -51 0
-11 -27 -37 -60 0
-11 -27 -44 -51 0
-11 -27 -44 -60 0
-11 -27 -51 -60 0
-11 -31 -37 -44 0
-11 -31 -37 -51 0
-11 -31 -37 -60 0
-11 -31 -44 -51 0
-11 -31 -44 -60 0
-11 -31 -51 -60 0
-11 -37 -44 -51 0
-11 -37 -44 -60 0
-11 -37 -51 -60 0
-11 -44 -51 -60 0
-20 -27 -31 -37 0
-20 -27 -31 -44 0
-20 -27 -31 -51 0
-20 -27 -31 -60 0
-20 -27 -37 -44 0
-20 -27 -37 -51 0
-20 -27 -37 -60 0
-20 -27 -44 -51 0
-20 -27 -44 -60 0
-20 -27 -51 -60 0
-20 -31 -37 -44 0
-20 -31 -37 -51 0
-20 -31 -37 -60 0
-20 -31 -44 -51 0
-20 -31 -44 -60 0
-20 -31 -51 -60 0
-20 -37 -44 -51 0
-20 -37 -44 -60 0
-20 -37 -51 -60 0
-20 -44 -51 -60 0
-27 -31 -37 -44 0
-27 -31 -37 -51 0
-27 -31 -37 -60 0
-27 -31 -44 -51 0
-27 -31 -44 -60 0
-27 -31 -51 -60 0
-27 -37 -44 -51 0
-27 -37 -44 -60 0
-27 -37 -51 -60 0
-27 -44 -51 -60 0
-31 -37 -44 -51 0
-31 -37 -44 -60 0
-31 -37 -51 -60 0
-31 -44 -51 -60 0
-37 -44 -51 -60 0
-6 -13 -15 -27 0
-6 -13 -15 -32 0
-6 -13 -15 -41 0
-6 -13 -15 -49 0
-6 -13 -15 -52 0
-6 -13 -15 -63 0
-6 -13 -27 -32 0
-6 -13 -27 -41 0
-6 -13 -27 -49 0
-6 -13 -27 -52 0
-6 -13 -27 -63 0
-6 -13 -32 -41 0
-6 -13 -32 -49 0
-6 -13 -32 -52 0
-6 -13 -32 -63 0
-6 -13 -41 -49 0
-6 -13 -41 -52 0
-6 -13 -41 -63 0
-6 -13 -49 -52 0
-6 -13 -49 -63 0
-6 -13 -52 -63 0
-6 -15 -27 -32 0
-6 -15 -27 -41 0
-6 -15 -27 -49 0
-6 -15 -27 -52 0
-6 -15 -27 -63 0
-6 -15 -32 -41 0
-6 -15 -32 -49 0
-6 -15 -32 -52 0
-6 -15 -32 -63 0
-6 -15 -41 -49 0
-6 -15 -41 -52 0
-6 -15 -41 -63 0
-6 -15 -49 -52 0
-6 -15 -49 -63 0
-6 -15 -52 -63 0
-6 -27 -32 -41 0
-6 -27 -32 -49 0
-6 -27 -32 -52 0
-6 -27 -32 -63 0
-6 -27 -41 -49 0
-6 -27 -41 -52 0
-6 -27 -41 -63 0
-6 -27 -49 -52 0
-6 -27 -49 -63 0
-6 -27 -52 -63 0
-6 -32 -41 -49 0
-6 -32 -41 -52 0
-6 -32 -41 -63 0
-6 -32 -49 -52 0
-6 -32 -49 -63 0
-6 -32 -52 -63 0
-6 -41 -49 -52 0
-6 -41 -49 -63 0
-6 -41 -52 -63 0
-6 -49 -52 -63 0
-13 -15 -27 -32 0
-13 -15 -27 -41 0
-13 -15 -27 -49 0
-13 -15 -27 -52 0
-13 -15 -27 -63 0
-13 -15 -32 -41 0
-13 -15 -32 -49 0
-13 -15 -32 -52 0
-13 -15 -32 -63 0
-13 -15 -41 -49 0
-13 -15 -41 -52 0
-13 -15 -41 -63 0
-13 -15 -49 -52 0
-13 -15 -49 -63 0
-13 -15 -52 -63 0
-13 -27 -32 -41 0
-13 -27 -32 -49 0
-13 -27 -32 -52 0
-13 -27 -32 -63 0
-13 -27 -41 -49 0
-13 -27 -41 -52 0
-13 -27 -41 -63 0
-13 -27 -49 -52 0
-13 -27 -49 -63 0
-13 -27 -52 -63 0
-13 -32 -41 -49 0
-13 -32 -41 -52 0
-13 -32 -41 -63 0
-13 -32 -49 -52 0
-13 -32 -49 -63 0
-13 -32 -52 -63 0
-13 -41 -49 -52 0
-13 -41 -49 -63 0
-13 -41 -52 -63 0
-13 -49 -52 -63 0
-15 -27 -32 -41 0
-15 -27 -32 -49 0
-15 -27 -32 -52 0
-15 -27 -32 -63 0
-15 -27 -41 -49 0
-15 -27 -41 -52 0
-15 -27 -41 -63 0
-15 -27 -49 -52 0
-15 -27 -49 -63 0
-15 -27 -52 -63 0
-15 -32 -41 -49 0
-15 -32 -41 -52 0
-15 -32 -41 -63 0
-15 -32 -49 -52 0
-15 -32 -49 -63 0
-15 -32 -52 -63 0
-15 -41 -49 -52 0
-15 -41 -49 -63 0
-15 -41 -52 -63 0
-15 -49 -52 -63 0
-27 -32 -41 -49 0
-27 -32 -41 -52 0
-27 -32 -41 -63 0
-27 -32 -49 -52 0
-27 -32 -49 -63 0
-27 -32 -52 -63 0
-27 -41 -49 -52 0
-27 -41 -49 -63 0
-27 -41 -52 -63 0
-27 -49 -52 -63 0
-32 -41 -49 -52 0
-32 -41 -49 -63 0
-32 -41 -52 -63 0
-32 -49 -52 -63 0
-41 -49 -52 -63 0
-1 -8 -18 -26 0
-1 -8 -18 -35 0
-1 -8 -18 -41 0
-1 -8 -18 -46 0
-1 -8 -18 -53 0
-1 -8 -18 -63 0
-1 -8 -26 -35 0
-1 -8 -26 -41 0
-1 -8 -26 -46 0
-1 -8 -26 -53 0
-1 -8 -26 -63 0
-1 -8 -35 -41 0
-1 -8 -35 -46 0
-1 -8 -35 -53 0
-1 -8 -35 -63 0
-1 -8 -41 -46 0
-1 -8 -41 -53 0
-1 -8 -41 -63 0
-1 -8 -46 -53 0
-1 -8 -46 -63 0
-1 -8 -53 -63 0
-1 -18 -26 -35 0
-1 -18 -26 -41 0
-1 -18 -26 -46 0
-1 -18 -26 -53 0
-1 -18 -26 -63 0
-1 -18 -35 -41 0
-1 -18 -35 -46 0
-1 -18 -35 -53 0
-1 -18 -35 -63 0
-1 -18 -41 -46 0
-1 -18 -41 -53 0
-1 -18 -41 -63 0
-1 -18 -46 -53 0
-1 -18 -46 -63 0
-1 -18 -53 -63 0
-1 -26 -35 -41 0
-1 -26 -35 -46 0
-1 -26 -35 -53 0
-1 -26 -35 -63 0
-1 -26 -41 -46 0
-1 -26 -41 -53 0
-1 -26 -41 -63 0
-1 -26 -46 -53 0
-1 -26 -46 -63 0
-1 -26 -53 -63 0
-1 -35 -41 -46 0
-1 -35 -41 -53 0
-1 -35 -41 -63 0
-1 -35 -46 -53 0
-1 -35 -46 -63 0
-1 -35 -53 -63 0
-1 -41 -46 -53 0
-1 -41 -46 -63 0
-1 -41 -53 -63 0
-1 -46 -53 -63 0
-8 -18 -26 -35 0
-8 -18 -26 -41 0
-8 -18 -26 -46 0
-8 -18 -26 -53 0
-8 -18 -26 -63 0
-8 -18 -35 -41 0
-8 -18 -35 -46 0
-8 -18 -35 -53 0
-8 -18 -35 -63 0
-8 -18 -41 -46 0
-8 -18 -41 -53 0
-8 -18 -41 -63 0
-8 -18 -46 -53 0
-8 -18 -46 -63 0
-8 -18 -53 -63 0
-8 -26 -35 -41 0
-8 -26 -35 -46 0
-8 -26 -35 -53 0
-8 -26 -35 -63 0
-8 -26 -41 -46 0
-8 -26 -41 -53 0
-8 -26 -41 -63 0
-8 -26 -46 -53 0
-8 -26 -46 -63 0
-8 -26 -53 -63 0
-8 -35 -41 -46 0
-8 -35 -41 -53 0
-8 -35 -41 -63 0
-8 -35 -46 -53 0
-8 -35 -46 -63 0
-8 -35 -53 -63 0
-8 -41 -46 -53 0
-8 -41 -46 -63 0
-8 -41 -53 -63 0
-8 -46 -53 -63 0
-18 -26 -35 -41 0
-18 -26 -35 -46 0
-18 -26 -35 -53 0
-18 -26 -35 -63 0
-18 -26 -41 -46 0
-18 -26 -41 -53 0
-18 -26 -41 -63 0
-18 -26 -46 -53 0
-18 -26 -46 -63 0
-18 -26 -53 -63 0
-18 -35 -41 -46 0
-18 -35 -41 -53 0
-18 -35 -41 -63 0
-18 -35 -46 -53 0
-18 -35 -46 -63 0
-18 -35 -53 -63 0
-18 -41 -46 -53 0
-18 -41 -46 -63 0
-18 -41 -53 -63 0
-18 -46 -53 -63 0
-26 -35 -41 -46 0
-26 -35 -41 -53 0
-26 -35 -41 -63 0
-26 -35 -46 -53 0
-26 -35 -46 -63 0
-26 -35 -53 -63 0
-26 -41 -46 -53 0
-26 -41 -46 -63 0
-26 -41 -53 -63 0
-26 -46 -53 -63 0
-35 -41 -46 -53 0
-35 -41 -46 -63 0
-35 -41 -53 -63 0
-35 -46 -53 -63 0
-41 -46 -53 -63 0
-5 -12 -16 -28 0
-5 -12 -16 -30 0
-5 -12 -16 -42 0
-5 -12 -16 -48 0
-5 -12 -16 -52 0
-5 -12 -16 -61 0
-5 -12 -28 -30 0
-5 -12 -28 -42 0
-5 -12 -28 -48 0
-5 -12 -28 -52 0
-5 -12 -28 -61 0
-5 -12 -30 -42 0
-5 -12 -30 -48 0
-5 -12 -30 -52 0
-5 -12 -30 -61 0
-5 -12 -42 -48 0
-5 -12 -42 -52 0
-5 -12 -42 -61 0
-5 -12 -48 -52 0
-5 -12 -48 -61 0
-5 -12 -52 -61 0
-5 -16 -28 -30 0
-5 -16 -28 -42 0
-5 -16 -28 -48 0
-5 -16 -28 -52 0
-5 -16 -28 -61 0
-5 -16 -30 -42 0
-5 -16 -30 -48 0
-5 -16 -30 -52 0
-5 -16 -30 -61 0
-5 -16 -42 -48 0
-5 -16 -42 -52 0
-5 -16 -42 -61 0
-5 -16 -48 -52 0
-5 -16 -48 -61 0
-5 -16 -52 -61 0
-5 -28 -30 -42 0
-5 -28 -30 -48 0
-5 -28 -30 -52 0
-5 -28 -30 -61 0
-5 -28 -42 -48 0
-5 -28 -42 -52 0
-5 -28 -42 -61 0
-5 -28 -48 -52 0
-5 -28 -48 -61 0
-5 -28 -52 -61 0
-5 -30 -42 -48 0
-5 -30 -42 -52 0
-5 -30 -42 -61 0
-5 -30 -48 -52 0
-5 -30 -48 -61 0
-5 -30 -52 -61 0
-5 -42 -48 -52 0
-5 -42 -48 -61 0
-5 -42 -52 -61 0
-5 -48 -52 -61 0
-12 -16 -28 -30 0
-12 -16 -28 -42 0
-12 -16 -28 -48 0
-12 -16 -28 -52 0
-12 -16 -28 -61 0
-12 -16 -30 -42 0
-12 -16 -30 -48 0
-12 -16 -30 -52 0
-12 -16 -30 -61 0
-12 -16 -42 -48 0
-12 -16 -42 -52 0
-12 -16 -42 -61 0
-12 -16 -48 -52 0
-12 -16 -48 -61 0
-12 -16 -52 -61 0
-12 -28 -30 -42 0
-12 -28 -30 -48 0
-12 -28 -30 -52 0
-12 -28 -30 -61 0
-12 -28 -42 -48 0
-12 -28 -42 -52 0
-12 -28 -42 -61 0
-12 -28 -48 -52 0
-12 -28 -48 -61 0
-12 -28 -52 -61 0
-12 -30 -42 -48 0
-12 -30 -42 -52 0
-12 -30 -42 -61 0
-12 -30 -48 -52 0
-12 -30 -48 -61 0
-12 -30 -52 -61 0
-12 -42 -48 -52 0
-12 -42 -48 -61 0
-12 -42 -52 -61 0
-12 -48 -52 -61 0
-16 -28 -30 -42 0
-16 -28 -30 -48 0
-16 -28 -30 -52 0
-16 -28 -30 -61 0
-16 -28 -42 -48 0
-16 -28 -42 -52 0
-16 -28 -42 -61 0
-16 -28 -48 -52 0
-16 -28 -48 -61 0
-16 -28 -52 -61 0
-16 -30 -42 -48 0
-16 -30 -42 -52 0
-16 -30 -42 -61 0
-16 -30 -48 -52 0
-16 -30 -48 -61 0
-16 -30 -52 -61 0
-16 -42 -48 -52 0
-16 -42 -48 -61 0
-16 -42 -52 -61 0
-16 -48 -52 -61 0
-28 -30 -42 -48 0
-28 -30 -42 -52 0
-28 -30 -42 -61 0
-28 -30 -48 -52 0
-28 -30 -48 -61 0
-28 -30 -52 -61 0
-28 -42 -48 -52 0
-28 -42 -48 -61 0
-28 -42 -52 -61 0
-28 -48 -52 -61 0
-30 -42 -48 -52 0
-30 -42 -48 -61 0
-30 -42 -52 -61 0
-30 -48 -52 -61 0
-42 -48 -52 -61 0
-7 -9 -16 -28 0
-7 -9 -16 -29 0
-7 -9 -16 -42 0
-7 -9 -16 -43 0
-7 -9 -16 -53 0
-7 -9 -16 -60 0
-7 -9 -28 -29 0
-7 -9 -28 -42 0
-7 -9 -28 -43 0
-7 -9 -28 -53 0
-7 -9 -28 -60 0
-7 -9 -29 -42 0
-7 -9 -29 -43 0
-7 -9 -29 -53 0
-7 -9 -29 -60 0
-7 -9 -42 -43 0
-7 -9 -42 -53 0
-7 -9 -42 -60 0
-7 -9 -43 -53 0
-7 -9 -43 -60 0
-7 -9 -53 -60 0
-7 -16 -28 -29 0
-7 -16 -28 -42 0
-7 -16 -28 -43 0
-7 -16 -28 -53 0
-7 -16 -28 -60 0
-7 -16 -29 -42 0
-7 -16 -29 -43 0
-7 -16 -29 -53 0
-7 -16 -29 -60 0
-7 -16 -42 -43 0
-7 -16 -42 -53 0
-7 -16 -42 -60 0
-7 -16 -43 -53 0
-7 -16 -43 -60 0
-7 -16 -53 -60 0
-7 -28 -29 -42 0
-7 -28 -29 -43 0
-7 -28 -29 -53 0
-7 -28 -29 -60 0
-7 -28 -42 -43 0
-7 -28 -42 -53 0
-7 -28 -42 -60 0
-7 -28 -43 -53 0
-7 -28 -43 -60 0
-7 -28 -53 -60 0
-7 -29 -42 -43 0
-7 -29 -42 -53 0
-7 -29 -42 -60 0
-7 -29 -43 -53 0
-7 -29 -43 -60 0
-7 -29 -53 -60 0
-7 -42 -43 -53 0
-7 -42 -43 -60 0
-7 -42 -53 -60 0
-7 -43 -53 -60 0
-9 -16 -28 -29 0
-9 -16 -28 -42 0
-9 -16 -28 -43 0
-9 -16 -28 -53 0
-9 -16 -28 -60 0
-9 -16 -29 -42 0
-9 -16 -29 -43 0
-9 -16 -29 -53 0
-9 -16 -29 -60 0
-9 -16 -42 -43 0
-9 -16 -42 -53 0
-9 -16 -42 -60 0
-9 -16 -43 -53 0
-9 -16 -43 -60 0
-9 -16 -53 -60 0
-9 -28 -29 -42 0
-9 -28 -29 -43 0
-9 -28 -29 -53 0
-9 -28 -29 -60 0
-9 -28 -42 -43 0
-9 -28 -42 -53 0
-9 -28 -42 -60 0
-9 -28 -43 -53 0
-9 -28 -43 -60 0
-9 -28 -53 -60 0
-9 -29 -42 -43 0
-9 -29 -42 -53 0
-9 -29 -42 -60 0
-9 -29 -43 -53 0
-9 -29 -43 -60 0
-9 -29 -53 -60 0
-9 -42 -43 -53 0
-9 -42 -43 -60 0
-9 -42 -53 -60 0
-9 -43 -53 -60 0
-16 -28 -29 -42 0
-16 -28 -29 -43 0
-16 -28 -29 -53 0
-16 -28 -29 -60 0
-16 -28 -42 -43 0
-16 -28 -42 -53 0
-16 -28 -42 -60 0
-16 -28 -43 -53 0
-16 -28 -43 -60 0
-16 -28 -53 -60 0
-16 -29 -42 -43 0
-16 -29 -42 -53 0
-16 -29 -42 -60 0
-16 -29 -43 -53 0
-16 -29 -43 -60 0
-16 -29 -53 -60 0
-16 -42 -43 -53 0
-16 -42 -43 -60 0
-16 -42 -53 -60 0
-16 -43 -53 -60 0
-28 -29 -42 -43 0
-28 -29 -42 -53 0
-28 -29 -42 -60 0
-28 -29 -43 -53 0
-28 -29 -43 -60 0
-28 -29 -53 -60 0
-28 -42 -43 -53 0
-28 -42 -43 -60 0
-28 -42 -53 -60 0
-28 -43 -53 -60 0
-29 -42 -43 -53 0
-29 -42 -43 -60 0
-29 -42 -53 -60 0
-29 -43 -53 -60 0
-42 -43 -53 -60 0
-1 -11 -20 -27 0
-1 -11 -20 -34 0
-1 -11 -20 -37 0
-1 -11 -20 -49 0
-1 -11 -20 -54 0
-1 -11 -20 -58 0
-1 -11 -27 -34 0
-1 -11 -27 -37 0
-1 -11 -27 -49 0
-1 -11 -27 -54 0
-1 -11 -27 -58 0
-1 -11 -34 -37 0
-1 -11 -34 -49 0
-1 -11 -34 -54 0
-1 -11 -34 -58 0
-1 -11 -37 -49 0
-1 -11 -37 -54 0
-1 -11 -37 -58 0
-1 -11 -49 -54 0
-1 -11 -49 -58 0
-1 -11 -54 -58 0
-1 -20 -27 -34 0
-1 -20 -27 -37 0
-1 -20 -27 -49 0
-1 -20 -27 -54 0
-1 -20 -27 -58 0
-1 -20 -34 -37 0
-1 -20 -34 -49 0
-1 -20 -34 -54 0
-1 -20 -34 -58 0
-1 -20 -37 -49 0
-1 -20 -37 -54 0
-1 -20 -37 -58 0
-1 -20 -49 -54 0
-1 -20 -49 -58 0
-1 -20 -54 -58 0
-1 -27 -34 -37 0
-1 -27 -34 -49 0
-1 -27 -34 -54 0
-1 -27 -34 -58 0
-1 -27 -37 -49 0
-1 -27 -37 -54 0
-1 -27 -37 -58 0
-1 -27 -49 -54 0
-1 -27 -49 -58 0
-1 -27 -54 -58 0
-1 -34 -37 -49 0
-1 -34 -37 -54 0
-1 -34 -37 -58 0
-1 -34 -49 -54 0
-1 -34 -49 -58 0
-1 -34 -54 -58 0
-1 -37 -49 -54 0
-1 -37 -49 -58 0
-1 -37 -54 -58 0
-1 -49 -54 -58 0
-11 -20 -27 -34 0
-11 -20 -27 -37 0
-11 -20 -27 -49 0
-11 -20 -27 -54 0
-11 -20 -27 -58 0
-11 -20 -34 -37 0
-11 -20 -34 -49 0
-11 -20 -34 -54 0
-11 -20 -34 -58 0
-11 -20 -37 -49 0
-11 -20 -37 -54 0
-11 -20 -37 -58 0
-11 -20 -49 -54 0
-11 -20 -49 -58 0
-11 -20 -54 -58 0
-11 -27 -34 -37 0
-11 -27 -34 -49 0
-11 -27 -34 -54 0
-11 -27 -34 -58 0
-11 -27 -37 -49 0
-11 -27 -37 -54 0
-11 -27 -37 -58 0
-11 -27 -49 -54 0
-11 -27 -49 -58 0
-11 -27 -54 -58 0
-11 -34 -37 -49 0
-11 -34 -37 -54 0
-11 -34 -37 -58 0
-11 -34 -49 -54 0
-11 -34 -49 -58 0
-11 -34 -54 -58 0
-11 -37 -49 -54 0
-11 -37 -49 -58 0
-11 -37 -54 -58 0
-11 -49 -54 -58 0
-20 -27 -34 -37 0
-20 -27 -34 -49 0
-20 -27 -34 -54 0
-20 -27 -34 -58 0
-20 -27 -37 -49 0
-20 -27 -37 -54 0
-20 -27 -37 -58 0
-20 -27 -49 -54 0
-20 -27 -49 -58 0
-20 -27 -54 -58 0
-20 -34 -37 -49 0
-20 -34 -37 -54 0
-20 -34 -37 -58 0
-20 -34 -49 -54 0
-20 -34 -49 -58 0
-20 -34 -54 -58 0
-20 -37 -49 -54 0
-20 -37 -49 -58 0
-20 -37 -54 -58 0
-20 -49 -54 -58 0
-27 -34 -37 -49 0
-27 -34 -37 -54 0
-27 -34 -37 -58 0
-27 -34 -49 -54 0
-27 -34 -49 -58 0
-27 -34 -54 -58 0
-27 -37 -49 -54 0
-27 -37 -49 -58 0
-27 -37 -54 -58 0
-27 -49 -54 -58 0
-34 -37 -49 -54 0
-34 -37 -49 -58 0
-34 -37 -54 -58 0
-34 -49 -54 -58 0
-37 -49 -54 -58 0
-7 -12 -20 -26 0
-7 -12 -20 -35 0
-7 -12 -20 -42 0
-7 -12 -20 -45 0
-7 -12 -20 -53 0
-7 -12 -20 -61 0
-7 -12 -26 -35 0
-7 -12 -26 -42 0
-7 -12 -26 -45 0
-7 -12 -26 -53 0
-7 -12 -26 -61 0
-7 -12 -35 -42 0
-7 -12 -35 -45 0
-7 -12 -35 -53 0
-7 -12 -35 -61 0
-7 -12 -42 -45 0
-7 -12 -42 -53 0
-7 -12 -42 -61 0
-7 -12 -45 -53 0
-7 -12 -45 -61 0
-7 -12 -53 -61 0
-7 -20 -26 -35 0
-7 -20 -26 -42 0
-7 -20 -26 -45 0
-7 -20 -26 -53 0
-7 -20 -26 -61 0
-7 -20 -35 -42 0
-7 -20 -35 -45 0
-7 -20 -35 -53 0
-7 -20 -35 -61 0
-7 -20 -42 -45 0
-7 -20 -42 -53 0
-7 -20 -42 -61 0
-7 -20 -45 -53 0
-7 -20 -45 -61 0
-7 -20 -53 -61 0
-7 -26 -35 -42 0
-7 -26 -35 -45 0
-7 -26 -35 -53 0
-7 -26 -35 -61 0
-7 -26 -42 -45 0
-7 -26 -42 -53 0
-7 -26 -42 -61 0
-7 -26 -45 -53 0
-7 -26 -45 -61 0
-7 -26 -53 -61 0
-7 -35 -42 -45 0
-7 -35 -42 -53 0
-7 -35 -42 -61 0
-7 -35 -45 -53 0
-7 -35 -45 -61 0
-7 -35 -53 -61 0
-7 -42 -45 -53 0
-7 -42 -45 -61 0
-7 -42 -53 -61 0
-7 -45 -53 -61 0
-12 -20 -26 -35 0
-12 -20 -26 -42 0
-12 -20 -26 -45 0
-12 -20 -26 -53 0
-12 -20 -26 -61 0
-12 -20 -35 -42 0
-12 -20 -35 -45 0
-12 -20 -35 -53 0
-12 -20 -35 -61 0
-12 -20 -42 -45 0
-12 -20 -42 -53 0
-12 -20 -42 -61 0
-12 -20 -45 -53 0
-12 -20 -45 -61 0
-12 -20 -53 -61 0
-12 -26 -35 -42 0
-12 -26 -35 -45 0
-12 -26 -35 -53 0
-12 -26 -35 -61 0
-12 -26 -42 -45 0
-12 -26 -42 -53 0
-12 -26 -42 -61 0
-12 -26 -45 -53 0
-12 -26 -45 -61 0
-12 -26 -53 -61 0
-12 -35 -42 -45 0
-12 -35 -42 -53 0
-12 -35 -42 -61 0
-12 -35 -45 -53 0
-12 -35 -45 -61 0
-12 -35 -53 -61 0
-12 -42 -45 -53 0
-12 -42 -45 -61 0
-12 -42 -53 -61 0
-12 -45 -53 -61 0
-20 -26 -35 -42 0
-20 -26 -35 -45 0
-20 -26 -35 -53 0
-20 -26 -35 -61 0
-20 -26 -42 -45 0
-20 -26 -42 -53 0
-20 -26 -42 -61 0
-20 -26 -45 -53 0
-20 -26 -45 -61 0
-20 -26 -53 -61 0
-20 -35 -42 -45 0
-20 -35 -42 -53 0
-20 -35 -42 -61 0
-20 -35 -45 -53 0
-20 -35 -45 -61 0
-20 -35 -53 -61 0
-20 -42 -45 -53 0
-20 -42 -45 -61 0
-20 -42 -53 -61 0
-20 -45 -53 -61 0
-26 -35 -42 -45 0
-26 -35 -42 -53 0
-26 -35 -42 -61 0
-26 -35 -45 -53 0
-26 -35 -45 -61 0
-26 -35 -53 -61 0
-26 -42 -45 -53 0
-26 -42 -45 -61 0
-26 -42 -53 -61 0
-26 -45 -53 -61 0
-35 -42 -45 -53 0
-35 -42 -45 -61 0
-35 -42 -53 -61 0
-35 -45 -53 -61 0
-42 -45 -53 -61 0
-7 -12 -16 -22 0
-7 -12 -16 -30 0
-7 -12 -16 -41 0
-7 -12 -16 -45 0
-7 -12 -16 -56 0
-7 -12 -16 -57 0
-7 -12 -22 -30 0
-7 -12 -22 -41 0
-7 -12 -22 -45 0
-7 -12 -22 -56 0
-7 -12 -22 -57 0
-7 -12 -30 -41 0
-7 -12 -30 -45 0
-7 -12 -30 -56 0
-7 -12 -30 -57 0
-7 -12 -41 -45 0
-7 -12 -41 -56 0
-7 -12 -41 -57 0
-7 -12 -45 -56 0
-7 -12 -45 -57 0
-7 -12 -56 -57 0
-7 -16 -22 -30 0
-7 -16 -22 -41 0
-7 -16 -22 -45 0
-7 -16 -22 -56 0
-7 -16 -22 -57 0
-7 -16 -30 -41 0
-7 -16 -30 -45 0
-7 -16 -30 -56 0
-7 -16 -30 -57 0
-7 -16 -41 -45 0
-7 -16 -41 -56 0
-7 -16 -41 -57 0
-7 -16 -45 -56 0
-7 -16 -45 -57 0
-7 -16 -56 -57 0
-7 -22 -30 -41 0
-7 -22 -30 -45 0
-7 -22 -30 -56 0
-7 -22 -30 -57 0
-7 -22 -41 -45 0
-7 -22 -41 -56 0
-7 -22 -41 -57 0
-7 -22 -45 -56 0
-7 -22 -45 -57 0
-7 -22 -56 -57 0
-7 -30 -41 -45 0
-7 -30 -41 -56 0
-7 -30 -41 -57 0
-7 -30 -45 -56 0
-7 -30 -45 -57 0
-7 -30 -56 -57 0
-7 -41 -45 -56 0
-7 -41 -45 -57 0
-7 -41 -56 -57 0
-7 -45 -56 -57 0
-12 -16 -22 -30 0
-12 -16 -22 -41 0
-12 -16 -22 -45 0
-12 -16 -22 -56 0
-12 -16 -22 -57 0
-12 -16 -30 -41 0
-12 -16 -30 -45 0
-12 -16 -30 -56 0
-12 -16 -30 -57 0
-12 -16 -41 -45 0
-12 -16 -41 -56 0
-12 -16 -41 -57 0
-12 -16 -45 -56 0
-12 -16 -45 -57 0
-12 -16 -56 -57 0
-12 -22 -30 -41 0
-12 -22 -30 -45 0
-12 -22 -30 -56 0
-12 -22 -30 -57 0
-12 -22 -41 -45 0
-12 -22 -41 -56 0
-12 -22 -41 -57 0
-12 -22 -45 -56 0
-12 -22 -45 -57 0
-12 -22 -56 -57 0
-12 -30 -41 -45 0
-12 -30 -41 -56 0
-12 -30 -41 -57 0
-12 -30 -45 -56 0
-12 -30 -45 -57 0
-12 -30 -56 -57 0
-12 -41 -45 -56 0
-12 -41 -45 -57 0
-12 -41 -56 -57 0
-12 -45 -56 -57 0
-16 -22 -30 -41 0
-16 -22 -30 -45 0
-16 -22 -30 -56 0
-16 -22 -30 -57 0
-16 -22 -41 -45 0
-16 -22 -41 -56 0
-16 -22 -41 -57 0
-16 -22 -45 -56 0
-16 -22 -45 -57 0
-16 -22 -56 -57 0
-16 -30 -41 -45 0
-16 -30 -41 -56 0
-16 -30 -41 -57 0
-16 -30 -45 -56 0
-16 -30 -45 -57 0
-16 -30 -56 -57 0
-16 -41 -45 -56 0
-16 -41 -45 -57 0
-16 -41 -56 -57 0
-16 -45 -56 -57 0
-22 -30 -41 -45 0
-22 -30 -41 -56 0
-22 -30 -41 -57 0
-22 -30 -45 -56 0
-22 -30 -45 -57 0
-22 -30 -56 -57 0
-22 -41 -45 -56 0
-22 -41 -45 -57 0
-22 -41 -56 -57 0
-22 -45 -56 -57 0
-30 -41 -45 -56 0
-30 -41 -45 -57 0
-30 -41 -56 -57 0
-30 -45 -56 -57 0
-41 -45 -56 -57 0
-1 -12 -19 -22 0
-1 -12 -19 -32 0
-1 -12 -19 -37 0
-1 -12 -19 -43 0
-1 -12 -19 -56 0
-1 -12 -19 -59 0
-1 -12 -22 -32 0
-1 -12 -22 -37 0
-1 -12 -22 -43 0
-1 -12 -22 -56 0
-1 -12 -22 -59 0
-1 -12 -32 -37 0
-1 -12 -32 -43 0
-1 -12 -32 -56 0
-1 -12 -32 -59 0
-1 -12 -37 -43 0
-1 -12 -37 -56 0
-1 -12 -37 -59 0
-1 -12 -43 -56 0
-1 -12 -43 -59 0
-1 -12 -56 -59 0
-1 -19 -22 -32 0
-1 -19 -22 -37 0
-1 -19 -22 -43 0
-1 -19 -22 -56 0
-1 -19 -22 -59 0
-1 -19 -32 -37 0
-1 -19 -32 -43 0
-1 -19 -32 -56 0
-1 -19 -32 -59 0
-1 -19 -37 -43 0
-1 -19 -37 -56 0
-1 -19 -37 -59 0
-1 -19 -43 -56 0
-1 -19 -43 -59 0
-1 -19 -56 -59 0
-1 -22 -32 -37 0
-1 -22 -32 -43 0
-1 -22 -32 -56 0
-1 -22 -32 -59 0
-1 -22 -37 -43 0
-1 -22 -37 -56 0
-1 -22 -37 -59 0
-1 -22 -43 -56 0
-1 -22 -43 -59 0
-1 -22 -56 -59 0
-1 -32 -37 -43 0
-1 -32 -37 -56 0
-1 -32 -37 -59 0
-1 -32 -43 -56 0
-1 -32 -43 -59 0
-1 -32 -56 -59 0
-1 -37 -43 -56 0
-1 -37 -43 -59 0
-1 -37 -56 -59 0
-1 -43 -56 -59 0
-12 -19 -22 -32 0
-12 -19 -22 -37 0
-12 -19 -22 -43 0
-12 -19 -22 -56 0
-12 -19 -22 -59 0
-12 -19 -32 -37 0
-12 -19 -32 -43 0
-12 -19 -32 -56 0
-12 -19 -32 -59 0
-12 -19 -37 -43 0
-12 -19 -37 -56 0
-12 -19 -37 -59 0
-12 -19 -43 -56 0
-12 -19 -43 -59 0
-12 -19 -56 -59 0
-12 -22 -32 -37 0
-12 -22 -32 -43 0
-12 -22 -32 -56 0
-12 -22 -32 -59 0
-12 -22 -37 -43 0
-12 -22 -37 -56 0
-12 -22 -37 -59 0
-12 -22 -43 -56 0
-12 -22 -43 -59 0
-12 -22 -56 -59 0
-12 -32 -37 -43 0
-12 -32 -37 -56 0
-12 -32 -37 -59 0
-12 -32 -43 -56 0
-12 -32 -43 -59 0
-12 -32 -56 -59 0
-12 -37 -43 -56 0
-12 -37 -43 -59 0
-12 -37 -56 -59 0
-12 -43 -56 -59 0
-19 -22 -32 -37 0
-19 -22 -32 -43 0
-19 -22 -32 -56 0
-19 -22 -32 -59 0
-19 -22 -37 -43 0
-19 -22 -37 -56 0
-19 -22 -37 -59 0
-19 -22 -43 -56 0
-19 -22 -43 -59 0
-19 -22 -56 -59 0
-19 -32 -37 -43 0
-19 -32 -37 -56 0
-19 -32 -37 -59 0
-19 -32 -43 -56 0
-19 -32 -43 -59 0
-19 -32 -56 -59 0
-19 -37 -43 -56 0
-19 -37 -43 -59 0
-19 -37 -56 -59 0
-19 -43 -56 -59 0
-22 -32 -37 -43 0
-22 -32 -37 -56 0
-22 -32 -37 -59 0
-22 -32 -43 -56 0
-22 -32 -43 -59 0
-22 -32 -56 -59 0
-22 -37 -43 -56 0
-22 -37 -43 -59 0
-22 -37 -56 -59 0
-22 -43 -56 -59 0
-32 -37 -43 -56 0
-32 -37 -43 -59 0
-32 -37 -56 -59 0
-32 -43 -56 -59 0
-37 -43 -56 -59 0
-6 -9 -18 -25 0
-6 -9 -18 -33 0
-6 -9 -18 -39 0
-6 -9 -18 -44 0
-6 -9 -18 -54 0
-6 -9 -18 -60 0
-6 -9 -25 -33 0
-6 -9 -25 -39 0
-6 -9 -25 -44 0
-6 -9 -25 -54 0
-6 -9 -25 -60 0
-6 -9 -33 -39 0
-6 -9 -33 -44 0
-6 -9 -33 -54 0
-6 -9 -33 -60 0
-6 -9 -39 -44 0
-6 -9 -39 -54 0
-6 -9 -39 -60 0
-6 -9 -44 -54 0
-6 -9 -44 -60 0
-6 -9 -54 -60 0
-6 -18 -25 -33 0
-6 -18 -25 -39 0
-6 -18 -25 -44 0
-6 -18 -25 -54 0
-6 -18 -25 -60 0
-6 -18 -33 -39 0
-6 -18 -33 -44 0
-6 -18 -33 -54 0
-6 -18 -33 -60 0
-6 -18 -39 -44 0
-6 -18 -39 -54 0
-6 -18 -39 -60 0
-6 -18 -44 -54 0
-6 -18 -44 -60 0
-6 -18 -54 -60 0
-6 -25 -33 -39 0
-6 -25 -33 -44 0
-6 -25 -33 -54 0
-6 -25 -33 -60 0
-6 -25 -39 -44 0
-6 -25 -39 -54 0
-6 -25 -39 -60 0
-6 -25 -44 -54 0
-6 -25 -44 -60 0
-6 -25 -54 -60 0
-6 -33 -39 -44 0
-6 -33 -39 -54 0
-6 -33 -39 -60 0
-6 -33 -44 -54 0
-6 -33 -44 -60 0
-6 -33 -54 -60 0
-6 -39 -44 -54 0
-6 -39 -44 -60 0
-6 -39 -54 -60 0
-6 -44 -54 -60 0
-9 -18 -25 -33 0
-9 -18 -25 -39 0
-9 -18 -25 -44 0
-9 -18 -25 -54 0
-9 -18 -25 -60 0
-9 -18 -33 -39 0
-9 -18 -33 -44 0
-9 -18 -33 -54 0
-9 -18 -33 -60 0
-9 -18 -39 -44 0
-9 -18 -39 -54 0
-9 -18 -39 -60 0
-9 -18 -44 -54 0
-9 -18 -44 -60 0
-9 -18 -54 -60 0
-9 -25 -33 -39 0
-9 -25 -33 -44 0
-9 -25 -33 -54 0
-9 -25 -33 -60 0
-9 -25 -39 -44 0
-9 -25 -39 -54 0
-9 -25 -39 -60 0
-9 -25 -44 -54 0
-9 -25 -44 -60 0
-9 -25 -54 -60 0
-9 -33 -39 -44 0
-9 -33 -39 -54 0
-9 -33 -39 -60 0
-9 -33 -44 -54 0
-9 -33 -44 -60 0
-9 -33 -54 -60 0
-9 -39 -44 -54 0
-9 -39 -44 -60 0
-9 -39 -54 -60 0
-9 -44 -54 -60 0
-18 -25 -33 -39 0
-18 -25 -33 -44 0
-18 -25 -33 -54 0
-18 -25 -33 -60 0
-18 -25 -39 -44 0
-18 -25 -39 -54 0
-18 -25 -39 -60 0
-18 -25 -44 -54 0
-18 -25 -44 -60 0
-18 -25 -54 -60 0
-18 -33 -39 -44 0
-18 -33 -39 -54 0
-18 -33 -39 -60 0
-18 -33 -44 -54 0
-18 -33 -44 -60 0
-18 -33 -54 -60 0
-18 -39 -44 -54 0
-18 -39 -44 -60 0
-18 -39 -54 -60 0
-18 -44 -54 -60 0
-25 -33 -39 -44 0
-25 -33 -39 -54 0
-25 -33 -39 -60 0
-25 -33 -44 -54 0
-25 -33 -44 -60 0
-25 -33 -54 -60 0
-25 -39 -44 -54 0
-25 -39 -44 -60 0
-25 -39 -54 -60 0
-25 -44 -54 -60 0
-33 -39 -44 -54 0
-33 -39 -44 -60 0
-33 -39 -54 -60 0
-33 -44 -54 -60 0
-39 -44 -54 -60 0
-7 -12 -21 -24 0
-7 -12 -21 -33 0
-7 -12 -21 -38 0
-7 -12 -21 -49 0
-7 -12 -21 -56 0
-7 -12 -21 -63 0
-7 -12 -24 -33 0
-7 -12 -24 -38 0
-7 -12 -24 -49 0
-7 -12 -24 -56 0
-7 -12 -24 -63 0
-7 -12 -33 -38 0
-7 -12 -33 -49 0
-7 -12 -33 -56 0
-7 -12 -33 -63 0
-7 -12 -38 -49 0
-7 -12 -38 -56 0
-7 -12 -38 -63 0
-7 -12 -49 -56 0
-7 -12 -49 -63 0
-7 -12 -56 -63 0
-7 -21 -24 -33 0
-7 -21 -24 -38 0
-7 -21 -24 -49 0
-7 -21 -24 -56 0
-7 -21 -24 -63 0
-7 -21 -33 -38 0
-7 -21 -33 -49 0
-7 -21 -33 -56 0
-7 -21 -33 -63 0
-7 -21 -38 -49 0
-7 -21 -38 -56 0
-7 -21 -38 -63 0
-7 -21 -49 -56 0
-7 -21 -49 -63 0
-7 -21 -56 -63 0
-7 -24 -33 -38 0
-7 -24 -33 -49 0
-7 -24 -33 -56 0
-7 -24 -33 -63 0
-7 -24 -38 -49 0
-7 -24 -38 -56 0
-7 -24 -38 -63 0
-7 -24 -49 -56 0
-7 -24 -49 -63 0
-7 -24 -56 -63 0
-7 -33 -38 -49 0
-7 -33 -38 -56 0
-7 -33 -38 -63 0
-7 -33 -49 -56 0
-7 -33 -49 -63 0
-7 -33 -56 -63 0
-7 -38 -49 -56 0
-7 -38 -49 -63 0
-7 -38 -56 -63 0
-7 -49 -56 -63 0
-12 -21 -24 -33 0
-12 -21 -24 -38 0
-12 -21 -24 -49 0
-12 -21 -24 -56 0
-12 -21 -24 -63 0
-12 -21 -33 -38 0
-12 -21 -33 -49 0
-12 -21 -33 -56 0
-12 -21 -33 -63 0
-12 -21 -38 -49 0
-12 -21 -38 -56 0
-12 -21 -38 -63 0
-12 -21 -49 -56 0
-12 -21 -49 -63 0
-12 -21 -56 -63 0
-12 -24 -33 -38 0
-12 -24 -33 -49 0
-12 -24 -33 -56 0
-12 -24 -33 -63 0
-12 -24 -38 -49 0
-12 -24 -38 -56 0
-12 -24 -38 -63 0
-12 -24 -49 -56 0
-12 -24 -49 -63 0
-12 -24 -56 -63 0
-12 -33 -38 -49 0
-12 -33 -38 -56 0
-12 -33 -38 -63 0
-12 -33 -49 -56 0
-12 -33 -49 -63 0
-12 -33 -56 -63 0
-12 -38 -49 -56 0
-12 -38 -49 -63 0
-12 -38 -56 -63 0
-12 -49 -56 -63 0
-21 -24 -33 -38 0
-21 -24 -33 -49 0
-21 -24 -33 -56 0
-21 -24 -33 -63 0
-21 -24 -38 -49 0
-21 -24 -38 -56 0
-21 -24 -38 -63 0
-21 -24 -49 -56 0
-21 -24 -49 -63 0
-21 -24 -56 -63 0
-21 -33 -38 -49 0
-21 -33 -38 -56 0
-21 -33 -38 -63 0
-21 -33 -49 -56 0
-21 -33 -49 -63 0
-21 -33 -56 -63 0
-21 -38 -49 -56 0
-21 -38 -49 -63 0
-21 -38 -56 -63 0
-21 -49 -56 -63 0
-24 -33 -38 -49 0
-24 -33 -38 -56 0
-24 -33 -38 -63 0
-24 -33 -49 -56 0
-24 -33 -49 -63 0
-24 -33 -56 -63 0
-24 -38 -49 -56 0
-24 -38 -49 -63 0
-24 -38 -56 -63 0
-24 -49 -56 -63 0
-33 -38 -49 -56 0
-33 -38 -49 -63 0
-33 -38 -56 -63 0
-33 -49 -56 -63 0
-38 -49 -56 -63 0
-4 -10 -21 -26 0
-4 -10 -21 -31 0
-4 -10 -21 -40 0
-4 -10 -21 -44 0
-4 -10 -21 -52 0
-4 -10 -21 -63 0
-4 -10 -26 -31 0
-4 -10 -26 -40 0
-4 -10 -26 -44 0
-4 -10 -26 -52 0
-4 -10 -26 -63 0
-4 -10 -31 -40 0
-4 -10 -31 -44 0
-4 -10 -31 -52 0
-4 -10 -31 -63 0
-4 -10 -40 -44 0
-4 -10 -40 -52 0
-4 -10 -40 -63 0
-4 -10 -44 -52 0
-4 -10 -44 -63 0
-4 -10 -52 -63 0
-4 -21 -26 -31 0
-4 -21 -26 -40 0
-4 -21 -26 -44 0
-4 -21 -26 -52 0
-4 -21 -26 -63 0
-4 -21 -31 -40 0
-4 -21 -31 -44 0
-4 -21 -31 -52 0
-4 -21 -31 -63 0
-4 -21 -40 -44 0
-4 -21 -40 -52 0
-4 -21 -40 -63 0
-4 -21 -44 -52 0
-4 -21 -44 -63 0
-4 -21 -52 -63 0
-4 -26 -31 -40 0
-4 -26 -31 -44 0
-4 -26 -31 -52 0
-4 -26 -31 -63 0
-4 -26 -40 -44 0
-4 -26 -40 -52 0
-4 -26 -40 -63 0
-4 -26 -44 -52 0
-4 -26 -44 -63 0
-4 -26 -52 -63 0
-4 -31 -40 -44 0
-4 -31 -40 -52 0
-4 -31 -40 -63 0
-4 -31 -44 -52 0
-4 -31 -44 -63 0
-4 -31 -52 -63 0
-4 -40 -44 -52 0
-4 -40 -44 -63 0
-4 -40 -52 -63 0
-4 -44 -52 -63 0
-10 -21 -26 -31 0
-10 -21 -26 -40 0
-10 -21 -26 -44 0
-10 -21 -26 -52 0
-10 -21 -26 -63 0
-10 -21 -31 -40 0
-10 -21 -31 -44 0
-10 -21 -31 -52 0
-10 -21 -31 -63 0
-10 -21 -40 -44 0
-10 -21 -40 -52 0
-10 -21 -40 -63 0
-10 -21 -44 -52 0
-10 -21 -44 -63 0
-10 -21 -52 -63 0
-10 -26 -31 -40 0
-10 -26 -31 -44 0
-10 -26 -31 -52 0
-10 -26 -31 -63 0
-10 -26 -40 -44 0
-10 -26 -40 -52 0
-10 -26 -40 -63 0
-10 -26 -44 -52 0
-10 -26 -44 -63 0
-10 -26 -52 -63 0
-10 -31 -40 -44 0
-10 -31 -40 -52 0
-10 -31 -40 -63 0
-10 -31 -44 -52 0
-10 -31 -44 -63 0
-10 -31 -52 -63 0
-10 -40 -44 -52 0
-10 -40 -44 -63 0
-10 -40 -52 -63 0
-10 -44 -52 -63 0
-21 -26 -31 -40 0
-21 -26 -31 -44 0
-21 -26 -31 -52 0
-21 -26 -31 -63 0
-21 -26 -40 -44 0
-21 -26 -40 -52 0
-21 -26 -40 -63 0
-21 -26 -44 -52 0
-21 -26 -44 -63 0
-21 -26 -52 -63 0
-21 -31 -40 -44 0
-21 -31 -40 -52 0
-21 -31 -40 -63 0
-21 -31 -44 -52 0
-21 -31 -44 -63 0
-21 -31 -52 -63 0
-21 -40 -44 -52 0
-21 -40 -44 -63 0
-21 -40 -52 -63 0
-21 -44 -52 -63 0
-26 -31 -40 -44 0
-26 -31 -40 -52 0
-26 -31 -40 -63 0
-26 -31 -44 -52 0
-26 -31 -44 -63 0
-26 -31 -52 -63 0
-26 -40 -44 -52 0
-26 -40 -44 -63 0
-26 -40 -52 -63 0
-26 -44 -52 -63 0
-31 -40 -44 -52 0
-31 -40 -44 -63 0
-31 -40 -52 -63 0
-31 -44 -52 -63 0
-40 -44 -52 -63 0
-2 -10 -19 -22 0
-2 -10 -19 -31 0
-2 -10 -19 -42 0
-2 -10 -19 -48 0
-2 -10 -19 -55 0
-2 -10 -19 -62 0
-2 -10 -22 -31 0
-2 -10 -22 -42 0
-2 -10 -22 -48 0
-2 -10 -22 -55 0
-2 -10 -22 -62 0
-2 -10 -31 -42 0
-2 -10 -31 -48 0
-2 -10 -31 -55 0
-2 -10 -31 -62 0
-2 -10 -42 -48 0
-2 -10 -42 -55 0
-2 -10 -42 -62 0
-2 -10 -48 -55 0
-2 -10 -48 -62 0
-2 -10 -55 -62 0
-2 -19 -22 -31 0
-2 -19 -22 -42 0
-2 -19 -22 -48 0
-2 -19 -22 -55 0
-2 -19 -22 -62 0
-2 -19 -31 -42 0
-2 -19 -31 -48 0
-2 -19 -31 -55 0
-2 -19 -31 -62 0
-2 -19 -42 -48 0
-2 -19 -42 -55 0
-2 -19 -42 -62 0
-2 -19 -48 -55 0
-2 -19 -48 -62 0
-2 -19 -55 -62 0
-2 -22 -31 -42 0
-2 -22 -31 -48 0
-2 -22 -31 -55 0
-2 -22 -31 -62 0
-2 -22 -42 -48 0
-2 -22 -42 -55 0
-2 -22 -42 -62 0
-2 -22 -48 -55 0
-2 -22 -48 -62 0
-2 -22 -55 -62 0
-2 -31 -42 -48 0
-2 -31 -42 -55 0
-2 -31 -42 -62 0
-2 -31 -48 -55 0
-2 -31 -48 -62 0
-2 -31 -55 -62 0
-2 -42 -48 -55 0
-2 -42 -48 -62 0
-2 -42 -55 -62 0
-2 -48 -55 -62 0
-10 -19 -22 -31 0
-10 -19 -22 -42 0
-10 -19 -22 -48 0
-10 -19 -22 -55 0
-10 -19 -22 -62 0
-10 -19 -31 -42 0
-10 -19 -31 -48 0
-10 -19 -31 -55 0
-10 -19 -31 -62 0
-10 -19 -42 -48 0
-10 -19 -42 -55 0
-10 -19 -42 -62 0
-10 -19 -48 -55 0
-10 -19 -48 -62 0
-10 -19 -55 -62 0
-10 -22 -31 -42 0
-10 -22 -31 -48 0
-10 -22 -31 -55 0
-10 -22 -31 -62 0
-10 -22 -42 -48 0
-10 -22 -42 -55 0
-10 -22 -42 -62 0
-10 -22 -48 -55 0
-10 -22 -48 -62 0
-10 -22 -55 -62 0
-10 -31 -42 -48 0
-10 -31 -42 -55 0
-10 -31 -42 -62 0
-10 -31 -48 -55 0
-10 -31 -48 -62 0
-10 -31 -55 -62 0
-10 -42 -48 -55 0
-10 -42 -48 -62 0
-10 -42 -55 -62 0
-10 -48 -55 -62 0
-19 -22 -31 -42 0
-19 -22 -31 -48 0
-19 -22 -31 -55 0
-19 -22 -31 -62 0
-19 -22 -42 -48 0
-19 -22 -42 -55 0
-19 -22 -42 -62 0
-19 -22 -48 -55 0
-19 -22 -48 -62 0
-19 -22 -55 -62 0
-19 -31 -42 -48 0
-19 -31 -42 -55 0
-19 -31 -42 -62 0
-19 -31 -48 -55 0
-19 -31 -48 -62 0
-19 -31 -55 -62 0
-19 -42 -48 -55 0
-19 -42 -48 -62 0
-19 -42 -55 -62 0
-19 -48 -55 -62 0
-22 -31 -42 -48 0
-22 -31 -42 -55 0
-22 -31 -42 -62 0
-22 -31 -48 -55 0
-22 -31 -48 -62 0
-22 -31 -55 -62 0
-22 -42 -48 -55 0
-22 -42 -48 -62 0
-22 -42 -55 -62 0
-22 -48 -55 -62 0
-31 -42 -48 -55 0
-31 -42 -48 -62 0
-31 -42 -55 -62 0
-31 -48 -55 -62 0
-42 -48 -55 -62 0
-2 -8 -15 -26 0
-2 -8 -15 -30 0
-2 -8 -15 -42 0
-2 -8 -15 -49 0
-2 -8 -15 -54 0
-2 -8 -15 -62 0
-2 -8 -26 -30 0
-2 -8 -26 -42 0
-2 -8 -26 -49 0
-2 -8 -26 -54 0
-2 -8 -26 -62 0
-2 -8 -30 -42 0
-2 -8 -30 -49 0
-2 -8 -30 -54 0
-2 -8 -30 -62 0
-2 -8 -42 -49 0
-2 -8 -42 -54 0
-2 -8 -42 -62 0
-2 -8 -49 -54 0
-2 -8 -49 -62 0
-2 -8 -54 -62 0
-2 -15 -26 -30 0
-2 -15 -26 -42 0
-2 -15 -26 -49 0
-2 -15 -26 -54 0
-2 -15 -26 -62 0
-2 -15 -30 -42 0
-2 -15 -30 -49 0
-2 -15 -30 -54 0
-2 -15 -30 -62 0
-2 -15 -42 -49 0
-2 -15 -42 -54 0
-2 -15 -42 -62 0
-2 -15 -49 -54 0
-2 -15 -49 -62 0
-2 -15 -54 -62 0
-2 -26 -30 -42 0
-2 -26 -30 -49 0
-2 -26 -30 -54 0
-2 -26 -30 -62 0
-2 -26 -42 -49 0
-2 -26 -42 -54 0
-2 -26 -42 -62 0
-2 -26 -49 -54 0
-2 -26 -49 -62 0
-2 -26 -54 -62 0
-2 -30 -42 -49 0
-2 -30 -42 -54 0
-2 -30 -42 -62 0
-2 -30 -49 -54 0
-2 -30 -49 -62 0
-2 -30 -54 -62 0
-2 -42 -49 -54 0
-2 -42 -49 -62 0
-2 -42 -54 -62 0
-2 -49 -54 -62 0
-8 -15 -26 -30 0
-8 -15 -26 -42 0
-8 -15 -26 -49 0
-8 -15 -26 -54 0
-8 -15 -26 -62 0
-8 -15 -30 -42 0
-8 -15 -30 -49 0
-8 -15 -30 -54 0
-8 -15 -30 -62 0
-8 -15 -42 -49 0
-8 -15 -42 -54 0
-8 -15 -42 -62 0
-8 -15 -49 -54 0
-8 -15 -49 -62 0
-8 -15 -54 -62 0
-8 -26 -30 -42 0
-8 -26 -30 -49 0
-8 -26 -30 -54 0
-8 -26 -30 -62 0
-8 -26 -42 -49 0
-8 -26 -42 -54 0
-8 -26 -42 -62 0
-8 -26 -49 -54 0
-8 -26 -49 -62 0
-8 -26 -54 -62 0
-8 -30 -42 -49 0
-8 -30 -42 -54 0
-8 -30 -42 -62 0
-8 -30 -49 -54 0
-8 -30 -49 -62 0
-8 -30 -54 -62 0
-8 -42 -49 -54 0
-8 -42 -49 -62 0
-8 -42 -54 -62 0
-8 -49 -54 -62 0
-15 -26 -30 -42 0
-15 -26 -30 -49 0
-15 -26 -30 -54 0
-15 -26 -30 -62 0
-15 -26 -42 -49 0
-15 -26 -42 -54 0
-15 -26 -42 -62 0
-15 -26 -49 -54 0
-15 -26 -49 -62 0
-15 -26 -54 -62 0
-15 -30 -42 -49 0
-15 -30 -42 -54 0
-15 -30 -42 -62 0
-15 -30 -49 -54 0
-15 -30 -49 -62 0
-15 -30 -54 -62 0
-15 -42 -49 -54 0
-15 -42 -49 -62 0
-15 -42 -54 -62 0
-15 -49 -54 -62 0
-26 -30 -42 -49 0
-26 -30 -42 -54 0
-26 -30 -42 -62 0
-26 -30 -49 -54 0
-26 -30 -49 -62 0
-26 -30 -54 -62 0
-26 -42 -49 -54 0
-26 -42 -49 -62 0
-26 -42 -54 -62 0
-26 -49 -54 -62 0
-30 -42 -49 -54 0
-30 -42 -49 -62 0
-30 -42 -54 -62 0
-30 -49 -54 -62 0
-42 -49 -54 -62 0
-3 -11 -18 -24 0
-3 -11 -18 -31 0
-3 -11 -18 -39 0
-3 -11 -18 -49 0
-3 -11 -18 -55 0
-3 -11 -18 -63 0
-3 -11 -24 -31 0
-3 -11 -24 -39 0
-3 -11 -24 -49 0
-3 -11 -24 -55 0
-3 -11 -24 -63 0
-3 -11 -31 -39 0
-3 -11 -31 -49 0
-3 -11 -31 -55 0
-3 -11 -31 -63 0
-3 -11 -39 -49 0
-3 -11 -39 -55 0
-3 -11 -39 -63 0
-3 -11 -49 -55 0
-3 -11 -49 -63 0
-3 -11 -55 -63 0
-3 -18 -24 -31 0
-3 -18 -24 -39 0
-3 -18 -24 -49 0
-3 -18 -24 -55 0
-3 -18 -24 -63 0
-3 -18 -31 -39 0
-3 -18 -31 -49 0
-3 -18 -31 -55 0
-3 -18 -31 -63 0
-3 -18 -39 -49 0
-3 -18 -39 -55 0
-3 -18 -39 -63 0
-3 -18 -49 -55 0
-3 -18 -49 -63 0
-3 -18 -55 -63 0
-3 -24 -31 -39 0
-3 -24 -31 -49 0
-3 -24 -31 -55 0
-3 -24 -31 -63 0
-3 -24 -39 -49 0
-3 -24 -39 -55 0
-3 -24 -39 -63 0
-3 -24 -49 -55 0
-3 -24 -49 -63 0
-3 -24 -55 -63 0
-3 -31 -39 -49 0
-3 -31 -39 -55 0
-3 -31 -39 -63 0
-3 -31 -49 -55 0
-3 -31 -49 -63 0
-3 -31 -55 -63 0
-3 -39 -49 -55 0
-3 -39 -49 -63 0
-3 -39 -55 -63 0
-3 -49 -55 -63 0
-11 -18 -24 -31 0
-11 -18 -24 -39 0
-11 -18 -24 -49 0
-11 -18 -24 -55 0
-11 -18 -24 -63 0
-11 -18 -31 -39 0
-11 -18 -31 -49 0
-11 -18 -31 -55 0
-11 -18 -31 -63 0
-11 -18 -39 -49 0
-11 -18 -39 -55 0
-11 -18 -39 -63 0
-11 -18 -49 -55 0
-11 -18 -49 -63 0
-11 -18 -55 -63 0
-11 -24 -31 -39 0
-11 -24 -31 -49 0
-11 -24 -31 -55 0
-11 -24 -31 -63 0
-11 -24 -39 -49 0
-11 -24 -39 -55 0
-11 -24 -39 -63 0
-11 -24 -49 -55 0
-11 -24 -49 -63 0
-11 -24 -55 -63 0
-11 -31 -39 -49 0
-11 -31 -39 -55 0
-11 -31 -39 -63 0
-11 -31 -49 -55 0
-11 -31 -49 -63 0
-11 -31 -55 -63 0
-11 -39 -49 -55 0
-11 -39 -49 -63 0
-11 -39 -55 -63 0
-11 -49 -55 -63 0
-18 -24 -31 -39 0
-18 -24 -31 -49 0
-18 -24 -31 -55 0
-18 -24 -31 -63 0
-18 -24 -39 -49 0
-18 -24 -39 -55 0
-18 -24 -39 -63 0
-18 -24 -49 -55 0
-18 -24 -49 -63 0
-18 -24 -55 -63 0
-18 -31 -39 -49 0
-18 -31 -39 -55 0
-18 -31 -39 -63 0
-18 -31 -49 -55 0
-18 -31 -49 -63 0
-18 -31 -55 -63 0
-18 -39 -49 -55 0
-18 -39 -49 -63 0
-18 -39 -55 -63 0
-18 -49 -55 -63 0
-24 -31 -39 -49 0
-24 -31 -39 -55 0
-24 -31 -39 -63 0
-24 -31 -49 -55 0
-24 -31 -49 -63 0
-24 -31 -55 -63 0
-24 -39 -49 -55 0
-24 -39 -49 -63 0
-24 -39 -55 -63 0
-24 -49 -55 -63 0
-31 -39 -49 -55 0
-31 -39 -49 -63 0
-31 -39 -55 -63 0
-31 -49 -55 -63 0
-39 -49 -55 -63 0
-1 -11 -17 -26 0
-1 -11 -17 -30 0
-1 -11 -17 -42 0
-1 -11 -17 -49 0
-1 -11 -17 -52 0
-1 -11 -17 -58 0
-1 -11 -26 -30 0
-1 -11 -26 -42 0
-1 -11 -26 -49 0
-1 -11 -26 -52 0
-1 -11 -26 -58 0
-1 -11 -30 -42 0
-1 -11 -30 -49 0
-1 -11 -30 -52 0
-1 -11 -30 -58 0
-1 -11 -42 -49 0
-1 -11 -42 -52 0
-1 -11 -42 -58 0
-1 -11 -49 -52 0
-1 -11 -49 -58 0
-1 -11 -52 -58 0
-1 -17 -26 -30 0
-1 -17 -26 -42 0
-1 -17 -26 -49 0
-1 -17 -26 -52 0
-1 -17 -26 -58 0
-1 -17 -30 -42 0
-1 -17 -30 -49 0
-1 -17 -30 -52 0
-1 -17 -30 -58 0
-1 -17 -42 -49 0
-1 -17 -42 -52 0
-1 -17 -42 -58 0
-1 -17 -49 -52 0
-1 -17 -49 -58 0
-1 -17 -52 -58 0
-1 -26 -30 -42 0
-1 -26 -30 -49 0
-1 -26 -30 -52 0
-1 -26 -30 -58 0
-1 -26 -42 -49 0
-1 -26 -42 -52 0
-1 -26 -42 -58 0
-1 -26 -49 -52 0
-1 -26 -49 -58 0
-1 -26 -52 -58 0
-1 -30 -42 -49 0
-1 -30 -42 -52 0
-1 -30 -42 -58 0
-1 -30 -49 -52 0
-1 -30 -49 -58 0
-1 -30 -52 -58 0
-1 -42 -49 -52 0
-1 -42 -49 -58 0
-1 -42 -52 -58 0
-1 -49 -52 -58 0
-11 -17 -26 -30 0
-11 -17 -26 -42 0
-11 -17 -26 -49 0
-11 -17 -26 -52 0
-11 -17 -26 -58 0
-11 -17 -30 -42 0
-11 -17 -30 -49 0
-11 -17 -30 -52 0
-11 -17 -30 -58 0
-11 -17 -42 -49 0
-11 -17 -42 -52 0
-11 -17 -42 -58 0
-11 -17 -49 -52 0
-11 -17 -49 -58 0
-11 -17 -52 -58 0
-11 -26 -30 -42 0
-11 -26 -30 -49 0
-11 -26 -30 -52 0
-11 -26 -30 -58 0
-11 -26 -42 -49 0
-11 -26 -42 -52 0
-11 -26 -42 -58 0
-11 -26 -49 -52 0
-11 -26 -49 -58 0
-11 -26 -52 -58 0
-11 -30 -42 -49 0
-11 -30 -42 -52 0
-11 -30 -42 -58 0
-11 -30 -49 -52 0
-11 -30 -49 -58 0
-11 -30 -52 -58 0
-11 -42 -49 -52 0
-11 -42 -49 -58 0
-11 -42 -52 -58 0
-11 -49 -52 -58 0
-17 -26 -30 -42 0
-17 -26 -30 -49 0
-17 -26 -30 -52 0
-17 -26 -30 -58 0
-17 -26 -42 -49 0
-17 -26 -42 -52 0
-17 -26 -42 -58 0
-17 -26 -49 -52 0
-17 -26 -49 -58 0
-17 -26 -52 -58 0
-17 -30 -42 -49 0
-17 -30 -42 -52 0
-17 -30 -42 -58 0
-17 -30 -49 -52 0
-17 -30 -49 -58 0
-17 -30 -52 -58 0
-17 -42 -49 -52 0
-17 -42 -49 -58 0
-17 -42 -52 -58 0
-17 -49 -52 -58 0
-26 -30 -42 -49 0
-26 -30 -42 -52 0
-26 -30 -42 -58 0
-26 -30 -49 -52 0
-26 -30 -49 -58 0
-26 -30 -52 -58 0
-26 -42 -49 -52 0
-26 -42 -49 -58 0
-26 -42 -52 -58 0
-26 -49 -52 -58 0
-30 -42 -49 -52 0
-30 -42 -49 -58 0
-30 -42 -52 -58 0
-30 -49 -52 -58 0
-42 -49 -52 -58 0
-2 -13 -21 -24 0
-2 -13 -21 -33 0
-2 -13 -21 -37 0
-2 -13 -21 -43 0
-2 -13 -21 -50 0
-2 -13 -21 -63 0
-2 -13 -24 -33 0
-2 -13 -24 -37 0
-2 -13 -24 -43 0
-2 -13 -24 -50 0
-2 -13 -24 -63 0
-2 -13 -33 -37 0
-2 -13 -33 -43 0
-2 -13 -33 -50 0
-2 -13 -33 -63 0
-2 -13 -37 -43 0
-2 -13 -37 -50 0
-2 -13 -37 -63 0
-2 -13 -43 -50 0
-2 -13 -43 -63 0
-2 -13 -50 -63 0
-2 -21 -24 -33 0
-2 -21 -24 -37 0
-2 -21 -24 -43 0
-2 -21 -24 -50 0
-2 -21 -24 -63 0
-2 -21 -33 -37 0
-2 -21 -33 -43 0
-2 -21 -33 -50 0
-2 -21 -33 -63 0
-2 -21 -37 -43 0
-2 -21 -37 -50 0
-2 -21 -37 -63 0
-2 -21 -43 -50 0
-2 -21 -43 -63 0
-2 -21 -50 -63 0
-2 -24 -33 -37 0
-2 -24 -33 -43 0
-2 -24 -33 -50 0
-2 -24 -33 -63 0
-2 -24 -37 -43 0
-2 -24 -37 -50 0
-2 -24 -37 -63 0
-2 -24 -43 -50 0
-2 -24 -43 -63 0
-2 -24 -50 -63 0
-2 -33 -37 -43 0
-2 -33 -37 -50 0
-2 -33 -37 -63 0
-2 -33 -43 -50 0
-2 -33 -43 -63 0
-2 -33 -50 -63 0
-2 -37 -43 -50 0
-2 -37 -43 -63 0
-2 -37 -50 -63 0
-2 -43 -50 -63 0
-13 -21 -24 -33 0
-13 -21 -24 -37 0
-13 -21 -24 -43 0
-13 -21 -24 -50 0
-13 -21 -24 -63 0
-13 -21 -33 -37 0
-13 -21 -33 -43 0
-13 -21 -33 -50 0
-13 -21 -33 -63 0
-13 -21 -37 -43 0
-13 -21 -37 -50 0
-13 -21 -37 -63 0
-13 -21 -43 -50 0
-13 -21 -43 -63 0
-13 -21 -50 -63 0
-13 -24 -33 -37 0
-13 -24 -33 -43 0
-13 -24 -33 -50 0
-13 -24 -33 -63 0
-13 -24 -37 -43 0
-13 -24 -37 -50 0
-13 -24 -37 -63 0
-13 -24 -43 -50 0
-13 -24 -43 -63 0
-13 -24 -50 -63 0
-13 -33 -37 -43 0
-13 -33 -37 -50 0
-13 -33 -37 -63 0
-13 -33 -43 -50 0
-13 -33 -43 -63 0
-13 -33 -50 -63 0
-13 -37 -43 -50 0
-13 -37 -43 -63 0
-13 -37 -50 -63 0
-13 -43 -50 -63 0
-21 -24 -33 -37 0
-21 -24 -33 -43 0
-21 -24 -33 -50 0
-21 -24 -33 -63 0
-21 -24 -37 -43 0
-21 -24 -37 -50 0
-21 -24 -37 -63 0
-21 -24 -43 -50 0
-21 -24 -43 -63 0
-21 -24 -50 -63 0
-21 -33 -37 -43 0
-21 -33 -37 -50 0
-21 -33 -37 -63 0
-21 -33 -43 -50 0
-21 -33 -43 -63 0
-21 -33 -50 -63 0
-21 -37 -43 -50 0
-21 -37 -43 -63 0
-21 -37 -50 -63 0
-21 -43 -50 -63 0
-24 -33 -37 -43 0
-24 -33 -37 -50 0
-24 -33 -37 -63 0
-24 -33 -43 -50 0
-24 -33 -43 -63 0
-24 -33 -50 -63 0
-24 -37 -43 -50 0
-24 -37 -43 -63 0
-24 -37 -50 -63 0
-24 -43 -50 -63 0
-33 -37 -43 -50 0
-33 -37 -43 -63 0
-33 -37 -50 -63 0
-33 -43 -50 -63 0
-37 -43 -50 -63 0
-3 -10 -17 -24 0
-3 -10 -17 -31 0
-3 -10 -17 -40 0
-3 -10 -17 -48 0
-3 -10 -17 -53 0
-3 -10 -17 -57 0
-3 -10 -24 -31 0
-3 -10 -24 -40 0
-3 -10 -24 -48 0
-3 -10 -24 -53 0
-3 -10 -24 -57 0
-3 -10 -31 -40 0
-3 -10 -31 -48 0
-3 -10 -31 -53 0
-3 -10 -31 -57 0
-3 -10 -40 -48 0
-3 -10 -40 -53 0
-3 -10 -40 -57 0
-3 -10 -48 -53 0
-3 -10 -48 -57 0
-3 -10 -53 -57 0
-3 -17 -24 -31 0
-3 -17 -24 -40 0
-3 -17 -24 -48 0
-3 -17 -24 -53 0
-3 -17 -24 -57 0
-3 -17 -31 -40 0
-3 -17 -31 -48 0
-3 -17 -31 -53 0
-3 -17 -31 -57 0
-3 -17 -40 -48 0
-3 -17 -40 -53 0
-3 -17 -40 -57 0
-3 -17 -48 -53 0
-3 -17 -48 -57 0
-3 -17 -53 -57 0
-3 -24 -31 -40 0
-3 -24 -31 -48 0
-3 -24 -31 -53 0
-3 -24 -31 -57 0
-3 -24 -40 -48 0
-3 -24 -40 -53 0
-3 -24 -40 -57 0
-3 -24 -48 -53 0
-3 -24 -48 -57 0
-3 -24 -53 -57 0
-3 -31 -40 -48 0
-3 -31 -40 -53 0
-3 -31 -40 -57 0
-3 -31 -48 -53 0
-3 -31 -48 -57 0
-3 -31 -53 -57 0
-3 -40 -48 -53 0
-3 -40 -48 -57 0
-3 -40 -53 -57 0
-3 -48 -53 -57 0
-10 -17 -24 -31 0
-10 -17 -24 -40 0
-10 -17 -24 -48 0
-10 -17 -24 -53 0
-10 -17 -24 -57 0
-10 -17 -31 -40 0
-10 -17 -31 -48 0
-10 -17 -31 -53 0
-10 -17 -31 -57 0
-10 -17 -40 -48 0
-10 -17 -40 -53 0
-10 -17 -40 -57 0
-10 -17 -48 -53 0
-10 -17 -48 -57 0
-10 -17 -53 -57 0
-10 -24 -31 -40 0
-10 -24 -31 -48 0
-10 -24 -31 -53 0
-10 -24 -31 -57 0
-10 -24 -40 -48 0
-10 -24 -40 -53 0
-10 -24 -40 -57 0
-10 -24 -48 -53 0
-10 -24 -48 -57 0
-10 -24 -53 -57 0
-10 -31 -40 -48 0
-10 -31 -40 -53 0
-10 -31 -40 -57 0
-10 -31 -48 -53 0
-10 -31 -48 -57 0
-10 -31 -53 -57 0
-10 -40 -48 -53 0
-10 -40 -48 -57 0
-10 -40 -53 -57 0
-10 -48 -53 -57 0
-17 -24 -31 -40 0
-17 -24 -31 -48 0
-17 -24 -31 -53 0
-17 -24 -31 -57 0
-17 -24 -40 -48 0
-17 -24 -40 -53 0
-17 -24 -40 -57 0
-17 -24 -48 -53 0
-17 -24 -48 -57 0
-17 -24 -53 -57 0
-17 -31 -40 -48 0
-17 -31 -40 -53 0
-17 -31 -40 -57 0
-17 -31 -48 -53 0
-17 -31 -48 -57 0
-17 -31 -53 -57 0
-17 -40 -48 -53 0
-17 -40 -48 -57 0
-17 -40 -53 -57 0
-17 -48 -53 -57 0
-24 -31 -40 -48 0
-24 -31 -40 -53 0
-24 -31 -40 -57 0
-24 -31 -48 -53 0
-24 -31 -48 -57 0
-24 -31 -53 -57 0
-24 -40 -48 -53 0
-24 -40 -48 -57 0
-24 -40 -53 -57 0
-24 -48 -53 -57 0
-31 -40 -48 -53 0
-31 -40 -48 -57 0
-31 -40 -53 -57 0
-31 -48 -53 -57 0
-40 -48 -53 -57 0
-3 -14 -17 -23 0
-3 -14 -17 -31 0
-3 -14 -17 -40 0
-3 -14 -17 -45 0
-3 -14 -17 -54 0
-3 -14 -17 -61 0
-3 -14 -23 -31 0
-3 -14 -23 -40 0
-3 -14 -23 -45 0
-3 -14 -23 -54 0
-3 -14 -23 -61 0
-3 -14 -31 -40 0
-3 -14 -31 -45 0
-3 -14 -31 -54 0
-3 -14 -31 -61 0
-3 -14 -40 -45 0
-3 -14 -40 -54 0
-3 -14 -40 -61 0
-3 -14 -45 -54 0
-3 -14 -45 -61 0
-3 -14 -54 -61 0
-3 -17 -23 -31 0
-3 -17 -23 -40 0
-3 -17 -23 -45 0
-3 -17 -23 -54 0
-3 -17 -23 -61 0
-3 -17 -31 -40 0
-3 -17 -31 -45 0
-3 -17 -31 -54 0
-3 -17 -31 -61 0
-3 -17 -40 -45 0
-3 -17 -40 -54 0
-3 -17 -40 -61 0
-3 -17 -45 -54 0
-3 -17 -45 -61 0
-3 -17 -54 -61 0
-3 -23 -31 -40 0
-3 -23 -31 -45 0
-3 -23 -31 -54 0
-3 -23 -31 -61 0
-3 -23 -40 -45 0
-3 -23 -40 -54 0
-3 -23 -40 -61 0
-3 -23 -45 -54 0
-3 -23 -45 -61 0
-3 -23 -54 -61 0
-3 -31 -40 -45 0
-3 -31 -40 -54 0
-3 -31 -40 -61 0
-3 -31 -45 -54 0
-3 -31 -45 -61 0
-3 -31 -54 -61 0
-3 -40 -45 -54 0
-3 -40 -45 -61 0
-3 -40 -54 -61 0
-3 -45 -54 -61 0
-14 -17 -23 -31 0
-14 -17 -23 -40 0
-14 -17 -23 -45 0
-14 -17 -23 -54 0
-14 -17 -23 -61 0
-14 -17 -31 -40 0
-14 -17 -31 -45 0
-14 -17 -31 -54 0
-14 -17 -31 -61 0
-14 -17 -40 -45 0
-14 -17 -40 -54 0
-14 -17 -40 -61 0
-14 -17 -45 -54 0
-14 -17 -45 -61 0
-14 -17 -54 -61 0
-14 -23 -31 -40 0
-14 -23 -31 -45 0
-14 -23 -31 -54 0
-14 -23 -31 -61 0
-14 -23 -40 -45 0
-14 -23 -40 -54 0
-14 -23 -40 -61 0
-14 -23 -45 -54 0
-14 -23 -45 -61 0
-14 -23 -54 -61 0
-14 -31 -40 -45 0
-14 -31 -40 -54 0
-14 -31 -40 -61 0
-14 -31 -45 -54 0
-14 -31 -45 -61 0
-14 -31 -54 -61 0
-14 -40 -45 -54 0
-14 -40 -45 -61 0
-14 -40 -54 -61 0
-14 -45 -54 -61 0
-17 -23 -31 -40 0
-17 -23 -31 -45 0
-17 -23 -31 -54 0
-17 -23 -31 -61 0
-17 -23 -40 -45 0
-17 -23 -40 -54 0
-17 -23 -40 -61 0
-17 -23 -45 -54 0
-17 -23 -45 -61 0
-17 -23 -54 -61 0
-17 -31 -40 -45 0
-17 -31 -40 -54 0
-17 -31 -40 -61 0
-17 -31 -45 -54 0
-17 -31 -45 -61 0
-17 -31 -54 -61 0
-17 -40 -45 -54 0
-17 -40 -45 -61 0
-17 -40 -54 -61 0
-17 -45 -54 -61 0
-23 -31 -40 -45 0
-23 -31 -40 -54 0
-23 -31 -40 -61 0
-23 -31 -45 -54 0
-23 -31 -45 -61 0
-23 -31 -54 -61 0
-23 -40 -45 -54 0
-23 -40 -45 -61 0
-23 -40 -54 -61 0
-23 -45 -54 -61 0
-31 -40 -45 -54 0
-31 -40 -45 -61 0
-31 -40 -54 -61 0
-31 -45 -54 -61 0
-40 -45 -54 -61 0
-5 -13 -19 -24 0
-5 -13 -19 -34 0
-5 -13 -19 -41 0
-5 -13 -19 -43 0
-5 -13 -19 -53 0
-5 -13 -19 -61 0
-5 -13 -24 -34 0
-5 -13 -24 -41 0
-5 -13 -24 -43 0
-5 -13 -24 -53 0
-5 -13 -24 -61 0
-5 -13 -34 -41 0
-5 -13 -34 -43 0
-5 -13 -34 -53 0
-5 -13 -34 -61 0
-5 -13 -41 -43 0
-5 -13 -41 -53 0
-5 -13 -41 -61 0
-5 -13 -43 -53 0
-5 -13 -43 -61 0
-5 -13 -53 -61 0
-5 -19 -24 -34 0
-5 -19 -24 -41 0
-5 -19 -24 -43 0
-5 -19 -24 -53 0
-5 -19 -24 -61 0
-5 -19 -34 -41 0
-5 -19 -34 -43 0
-5 -19 -34 -53 0
-5 -19 -34 -61 0
-5 -19 -41 -43 0
-5 -19 -41 -53 0
-5 -19 -41 -61 0
-5 -19 -43 -53 0
-5 -19 -43 -61 0
-5 -19 -53 -61 0
-5 -24 -34 -41 0
-5 -24 -34 -43 0
-5 -24 -34 -53 0
-5 -24 -34 -61 0
-5 -24 -41 -43 0
-5 -24 -41 -53 0
-5 -24 -41 -61 0
-5 -24 -43 -53 0
-5 -24 -43 -61 0
-5 -24 -53 -61 0
-5 -34 -41 -43 0
-5 -34 -41 -53 0
-5 -34 -41 -61 0
-5 -34 -43 -53 0
-5 -34 -43 -61 0
-5 -34 -53 -61 0
-5 -41 -43 -53 0
-5 -41 -43 -61 0
-5 -41 -53 -61 0
-5 -43 -53 -61 0
-13 -19 -24 -34 0
-13 -19 -24 -41 0
-13 -19 -24 -43 0
-13 -19 -24 -53 0
-13 -19 -24 -61 0
-13 -19 -34 -41 0
-13 -19 -34 -43 0
-13 -19 -34 -53 0
-13 -19 -34 -61 0
-13 -19 -41 -43 0
-13 -19 -41 -53 0
-13 -19 -41 -61 0
-13 -19 -43 -53 0
-13 -19 -43 -61 0
-13 -19 -53 -61 0
-13 -24 -34 -41 0
-13 -24 -34 -43 0
-13 -24 -34 -53 0
-13 -24 -34 -61 0
-13 -24 -41 -43 0
-13 -24 -41 -53 0
-13 -24 -41 -61 0
-13 -24 -43 -53 0
-13 -24 -43 -61 0
-13 -24 -53 -61 0
-13 -34 -41 -43 0
-13 -34 -41 -53 0
-13 -34 -41 -61 0
-13 -34 -43 -53 0
-13 -34 -43 -61 0
-13 -34 -53 -61 0
-13 -41 -43 -53 0
-13 -41 -43 -61 0
-13 -41 -53 -61 0
-13 -43 -53 -61 0
-19 -24 -34 -41 0
-19 -24 -34 -43 0
-19 -24 -34 -53 0
-19 -24 -34 -61 0
-19 -24 -41 -43 0
-19 -24 -41 -53 0
-19 -24 -41 -61 0
-19 -24 -43 -53 0
-19 -24 -43 -61 0
-19 -24 -53 -61 0
-19 -34 -41 -43 0
-19 -34 -41 -53 0
-19 -34 -41 -61 0
-19 -34 -43 -53 0
-19 -34 -43 -61 0
-19 -34 -53 -61 0
-19 -41 -43 -53 0
-19 -41 -43 -61 0
-19 -41 -53 -61 0
-19 -43 -53 -61 0
-24 -34 -41 -43 0
-24 -34 -41 -53 0
-24 -34 -41 -61 0
-24 -34 -43 -53 0
-24 -34 -43 -61 0
-24 -34 -53 -61 0
-24 -41 -43 -53 0
-24 -41 -43 -61 0
-24 -41 -53 -61 0
-24 -43 -53 -61 0
-34 -41 -43 -53 0
-34 -41 -43 -61 0
-34 -41 -53 -61 0
-34 -43 -53 -61 0
-41 -43 -53 -61 0
-7 -10 -18 -26 0
-7 -10 -18 -32 0
-7 -10 -18 -39 0
-7 -10 -18 -46 0
-7 -10 -18 -56 0
-7 -10 -18 -60 0
-7 -10 -26 -32 0
-7 -10 -26 -39 0
-7 -10 -26 -46 0
-7 -10 -26 -56 0
-7 -10 -26 -60 0
-7 -10 -32 -39 0
-7 -10 -32 -46 0
-7 -10 -32 -56 0
-7 -10 -32 -60 0
-7 -10 -39 -46 0
-7 -10 -39 -56 0
-7 -10 -39 -60 0
-7 -10 -46 -56 0
-7 -10 -46 -60 0
-7 -10 -56 -60 0
-7 -18 -26 -32 0
-7 -18 -26 -39 0
-7 -18 -26 -46 0
-7 -18 -26 -56 0
-7 -18 -26 -60 0
-7 -18 -32 -39 0
-7 -18 -32 -46 0
-7 -18 -32 -56 0
-7 -18 -32 -60 0
-7 -18 -39 -46 0
-7 -18 -39 -56 0
-7 -18 -39 -60 0
-7 -18 -46 -56 0
-7 -18 -46 -60 0
-7 -18 -56 -60 0
-7 -26 -32 -39 0
-7 -26 -32 -46 0
-7 -26 -32 -56 0
-7 -26 -32 -60 0
-7 -26 -39 -46 0
-7 -26 -39 -56 0
-7 -26 -39 -60 0
-7 -26 -46 -56 0
-7 -26 -46 -60 0
-7 -26 -56 -60 0
-7 -32 -39 -46 0
-7 -32 -39 -56 0
-7 -32 -39 -60 0
-7 -32 -46 -56 0
-7 -32 -46 -60 0
-7 -32 -56 -60 0
-7 -39 -46 -56 0
-7 -39 -46 -60 0
-7 -39 -56 -60 0
-7 -46 -56 -60 0
-10 -18 -26 -32 0
-10 -18 -26 -39 0
-10 -18 -26 -46 0
-10 -18 -26 -56 0
-10 -18 -26 -60 0
-10 -18 -32 -39 0
-10 -18 -32 -46 0
-10 -18 -32 -56 0
-10 -18 -32 -60 0
-10 -18 -39 -46 0
-10 -18 -39 -56 0
-10 -18 -39 -60 0
-10 -18 -46 -56 0
-10 -18 -46 -60 0
-10 -18 -56 -60 0
-10 -26 -32 -39 0
-10 -26 -32 -46 0
-10 -26 -32 -56 0
-10 -26 -32 -60 0
-10 -26 -39 -46 0
-10 -26 -39 -56 0
-10 -26 -39 -60 0
-10 -26 -46 -56 0
-10 -26 -46 -60 0
-10 -26 -56 -60 0
-10 -32 -39 -46 0
-10 -32 -39 -56 0
-10 -32 -39 -60 0
-10 -32 -46 -56 0
-10 -32 -46 -60 0
-10 -32 -56 -60 0
-10 -39 -46 -56 0
-10 -39 -46 -60 0
-10 -39 -56 -60 0
-10 -46 -56 -60 0
-18 -26 -32 -39 0
-18 -26 -32 -46 0
-18 -26 -32 -56 0
-18 -26 -32 -60 0
-18 -26 -39 -46 0
-18 -26 -39 -56 0
-18 -26 -39 -60 0
-18 -26 -46 -56 0
-18 -26 -46 -60 0
-18 -26 -56 -60 0
-18 -32 -39 -46 0
-18 -32 -39 -56 0
-18 -32 -39 -60 0
-18 -32 -46 -56 0
-18 -32 -46 -60 0
-18 -32 -56 -60 0
-18 -39 -46 -56 0
-18 -39 -46 -60 0
-18 -39 -56 -60 0
-18 -46 -56 -60 0
-26 -32 -39 -46 0
-26 -32 -39 -56 0
-26 -32 -39 -60 0
-26 -32 -46 -56 0
-26 -32 -46 -60 0
-26 -32 -56 -60 0
-26 -39 -46 -56 0
-26 -39 -46 -60 0
-26 -39 -56 -60 0
-26 -46 -56 -60 0
-32 -39 -46 -56 0
-32 -39 -46 -60 0
-32 -39 -56 -60 0
-32 -46 -56 -60 0
-39 -46 -56 -60 0
-7 -8 -16 -27 0
-7 -8 -16 -31 0
-7 -8 -16 -40 0
-7 -8 -16 -45 0
-7 -8 -16 -53 0
-7 -8 -16 -60 0
-7 -8 -27 -31 0
-7 -8 -27 -40 0
-7 -8 -27 -45 0
-7 -8 -27 -53 0
-7 -8 -27 -60 0
-7 -8 -31 -40 0
-7 -8 -31 -45 0
-7 -8 -31 -53 0
-7 -8 -31 -60 0
-7 -8 -40 -45 0
-7 -8 -40 -53 0
-7 -8 -40 -60 0
-7 -8 -45 -53 0
-7 -8 -45 -60 0
-7 -8 -53 -60 0
-7 -16 -27 -31 0
-7 -16 -27 -40 0
-7 -16 -27 -45 0
-7 -16 -27 -53 0
-7 -16 -27 -60 0
-7 -16 -31 -40 0
-7 -16 -31 -45 0
-7 -16 -31 -53 0
-7 -16 -31 -60 0
-7 -16 -40 -45 0
-7 -16 -40 -53 0
-7 -16 -40 -60 0
-7 -16 -45 -53 0
-7 -16 -45 -60 0
-7 -16 -53 -60 0
-7 -27 -31 -40 0
-7 -27 -31 -45 0
-7 -27 -31 -53 0
-7 -27 -31 -60 0
-7 -27 -40 -45 0
-7 -27 -40 -53 0
-7 -27 -40 -60 0
-7 -27 -45 -53 0
-7 -27 -45 -60 0
-7 -27 -53 -60 0
-7 -31 -40 -45 0
-7 -31 -40 -53 0
-7 -31 -40 -60 0
-7 -31 -45 -53 0
-7 -31 -45 -60 0
-7 -31 -53 -60 0
-7 -40 -45 -53 0
-7 -40 -45 -60 0
-7 -40 -53 -60 0
-7 -45 -53 -60 0
-8 -16 -27 -31 0
-8 -16 -27 -40 0
-8 -16 -27 -45 0
-8 -16 -27 -53 0
-8 -16 -27 -60 0
-8 -16 -31 -40 0
-8 -16 -31 -45 0
-8 -16 -31 -53 0
-8 -16 -31 -60 0
-8 -16 -40 -45 0
-8 -16 -40 -53 0
-8 -16 -40 -60 0
-8 -16 -45 -53 0
-8 -16 -45 -60 0
-8 -16 -53 -60 0
-8 -27 -31 -40 0
-8 -27 -31 -45 0
-8 -27 -31 -53 0
-8 -27 -31 -60 0
-8 -27 -40 -45 0
-8 -27 -40 -53 0
-8 -27 -40 -60 0
-8 -27 -45 -53 0
-8 -27 -45 -60 0
-8 -27 -53 -60 0
-8 -31 -40 -45 0
-8 -31 -40 -53 0
-8 -31 -40 -60 0
-8 -31 -45 -53 0
-8 -31 -45 -60 0
-8 -31 -53 -60 0
-8 -40 -45 -53 0
-8 -40 -45 -60 0
-8 -40 -53 -60 0
-8 -45 -53 -60 0
-16 -27 -31 -40 0
-16 -27 -31 -45 0
-16 -27 -31 -53 0
-16 -27 -31 -60 0
-16 -27 -40 -45 0
-16 -27 -40 -53 0
-16 -27 -40 -60 0
-16 -27 -45 -53 0
-16 -27 -45 -60 0
-16 -27 -53 -60 0
-16 -31 -40 -45 0
-16 -31 -40 -53 0
-16 -31 -40 -60 0
-16 -31 -45 -53 0
-16 -31 -45 -60 0
-16 -31 -53 -60 0
-16 -40 -45 -53 0
-16 -40 -45 -60 0
-16 -40 -53 -60 0
-16 -45 -53 -60 0
-27 -31 -40 -45 0
-27 -31 -40 -53 0
-27 -31 -40 -60 0
-27 -31 -45 -53 0
-27 -31 -45 -60 0
-27 -31 -53 -60 0
-27 -40 -45 -53 0
-27 -40 -45 -60 0
-27 -40 -53 -60 0
-27 -45 -53 -60 0
-31 -40 -45 -53 0
-31 -40 -45 -60 0
-31 -40 -53 -60 0
-31 -45 -53 -60 0
-40 -45 -53 -60 0
-2 -10 -19 -23 0
-2 -10 -19 -32 0
-2 -10 -19 -42 0
-2 -10 -19 -45 0
-2 -10 -19 -52 0
-2 -10 -19 -58 0
-2 -10 -23 -32 0
-2 -10 -23 -42 0
-2 -10 -23 -45 0
-2 -10 -23 -52 0
-2 -10 -23 -58 0
-2 -10 -32 -42 0
-2 -10 -32 -45 0
-2 -10 -32 -52 0
-2 -10 -32 -58 0
-2 -10 -42 -45 0
-2 -10 -42 -52 0
-2 -10 -42 -58 0
-2 -10 -45 -52 0
-2 -10 -45 -58 0
-2 -10 -52 -58 0
-2 -19 -23 -32 0
-2 -19 -23 -42 0
-2 -19 -23 -45 0
-2 -19 -23 -52 0
-2 -19 -23 -58 0
-2 -19 -32 -42 0
-2 -19 -32 -45 0
-2 -19 -32 -52 0
-2 -19 -32 -58 0
-2 -19 -42 -45 0
-2 -19 -42 -52 0
-2 -19 -42 -58 0
-2 -19 -45 -52 0
-2 -19 -45 -58 0
-2 -19 -52 -58 0
-2 -23 -32 -42 0
-2 -23 -32 -45 0
-2 -23 -32 -52 0
-2 -23 -32 -58 0
-2 -23 -42 -45 0
-2 -23 -42 -52 0
-2 -23 -42 -58 0
-2 -23 -45 -52 0
-2 -23 -45 -58 0
-2 -23 -52 -58 0
-2 -32 -42 -45 0
-2 -32 -42 -52 0
-2 -32 -42 -58 0
-2 -32 -45 -52 0
-2 -32 -45 -58 0
-2 -32 -52 -58 0
-2 -42 -45 -52 0
-2 -42 -45 -58 0
-2 -42 -52 -58 0
-2 -45 -52 -58 0
-10 -19 -23 -32 0
-10 -19 -23 -42 0
-10 -19 -23 -45 0
-10 -19 -23 -52 0
-10 -19 -23 -58 0
-10 -19 -32 -42 0
-10 -19 -32 -45 0
-10 -19 -32 -52 0
-10 -19 -32 -58 0
-10 -19 -42 -45 0
-10 -19 -42 -52 0
-10 -19 -42 -58 0
-10 -19 -45 -52 0
-10 -19 -45 -58 0
-10 -19 -52 -58 0
-10 -23 -32 -42 0
-10 -23 -32 -45 0
-10 -23 -32 -52 0
-10 -23 -32 -58 0
-10 -23 -42 -45 0
-10 -23 -42 -52 0
-10 -23 -42 -58 0
-10 -23 -45 -52 0
-10 -23 -45 -58 0
-10 -23 -52 -58 0
-10 -32 -42 -45 0
-10 -32 -42 -52 0
-10 -32 -42 -58 0
-10 -32 -45 -52 0
-10 -32 -45 -58 0
-10 -32 -52 -58 0
-10 -42 -45 -52 0
-10 -42 -45 -58 0
-10 -42 -52 -58 0
-10 -45 -52 -58 0
-19 -23 -32 -42 0
-19 -23 -32 -45 0
-19 -23 -32 -52 0
-19 -23 -32 -58 0
-19 -23 -42 -45 0
-19 -23 -42 -52 0
-19 -23 -42 -58 0
-19 -23 -45 -52 0
-19 -23 -45 -58 0
-19 -23 -52 -58 0
-19 -32 -42 -45 0
-19 -32 -42 -52 0
-19 -32 -42 -58 0
-19 -32 -45 -52 0
-19 -32 -45 -58 0
-19 -32 -52 -58 0
-19 -42 -45 -52 0
-19 -42 -45 -58 0
-19 -42 -52 -58 0
-19 -45 -52 -58 0
-23 -32 -42 -45 0
-23 -32 -42 -52 0
-23 -32 -42 -58 0
-23 -32 -45 -52 0
-23 -32 -45 -58 0
-23 -32 -52 -58 0
-23 -42 -45 -52 0
-23 -42 -45 -58 0
-23 -42 -52 -58 0
-23 -45 -52 -58 0
-32 -42 -45 -52 0
-32 -42 -45 -58 0
-32 -42 -52 -58 0
-32 -45 -52 -58 0
-42 -45 -52 -58 0
-4 -13 -20 -26 0
-4 -13 -20 -34 0
-4 -13 -20 -38 0
-4 -13 -20 -47 0
-4 -13 -20 -56 0
-4 -13 -20 -61 0
-4 -13 -26 -34 0
-4 -13 -26 -38 0
-4 -13 -26 -47 0
-4 -13 -26 -56 0
-4 -13 -26 -61 0
-4 -13 -34 -38 0
-4 -13 -34 -47 0
-4 -13 -34 -56 0
-4 -13 -34 -61 0
-4 -13 -38 -47 0
-4 -13 -38 -56 0
-4 -13 -38 -61 0
-4 -13 -47 -56 0
-4 -13 -47 -61 0
-4 -13 -56 -61 0
-4 -20 -26 -34 0
-4 -20 -26 -38 0
-4 -20 -26 -47 0
-4 -20 -26 -56 0
-4 -20 -26 -61 0
-4 -20 -34 -38 0
-4 -20 -34 -47 0
-4 -20 -34 -56 0
-4 -20 -34 -61 0
-4 -20 -38 -47 0
-4 -20 -38 -56 0
-4 -20 -38 -61 0
-4 -20 -47 -56 0
-4 -20 -47 -61 0
-4 -20 -56 -61 0
-4 -26 -34 -38 0
-4 -26 -34 -47 0
-4 -26 -34 -56 0
-4 -26 -34 -61 0
-4 -26 -38 -47 0
-4 -26 -38 -56 0
-4 -26 -38 -61 0
-4 -26 -47 -56 0
-4 -26 -47 -61 0
-4 -26 -56 -61 0
-4 -34 -38 -47 0
-4 -34 -38 -56 0
-4 -34 -38 -61 0
-4 -34 -47 -56 0
-4 -34 -47 -61 0
-4 -34 -56 -61 0
-4 -38 -47 -56 0
-4 -38 -47 -61 0
-4 -38 -56 -61 0
-4 -47 -56 -61 0
-13 -20 -26 -34 0
-13 -20 -26 -38 0
-13 -20 -26 -47 0
-13 -20 -26 -56 0
-13 -20 -26 -61 0
-13 -20 -34 -38 0
-13 -20 -34 -47 0
-13 -20 -34 -56 0
-13 -20 -34 -61 0
-13 -20 -38 -47 0
-13 -20 -38 -56 0
-13 -20 -38 -61 0
-13 -20 -47 -56 0
-13 -20 -47 -61 0
-13 -20 -56 -61 0
-13 -26 -34 -38 0
-13 -26 -34 -47 0
-13 -26 -34 -56 0
-13 -26 -34 -61 0
-13 -26 -38 -47 0
-13 -26 -38 -56 0
-13 -26 -38 -61 0
-13 -26 -47 -56 0
-13 -26 -47 -61 0
-13 -26 -56 -61 0
-13 -34 -38 -47 0
-13 -34 -38 -56 0
-13 -34 -38 -61 0
-13 -34 -47 -56 0
-13 -34 -47 -61 0
-13 -34 -56 -61 0
-13 -38 -47 -56 0
-13 -38 -47 -61 0
-13 -38 -56 -61 0
-13 -47 -56 -61 0
-20 -26 -34 -38 0
-20 -26 -34 -47 0
-20 -26 -34 -56 0
-20 -26 -34 -61 0
-20 -26 -38 -47 0
-20 -26 -38 -56 0
-20 -26 -38 -61 0
-20 -26 -47 -56 0
-20 -26 -47 -61 0
-20 -26 -56 -61 0
-20 -34 -38 -47 0
-20 -34 -38 -56 0
-20 -34 -38 -61 0
-20 -34 -47 -56 0
-20 -34 -47 -61 0
-20 -34 -56 -61 0
-20 -38 -47 -56 0
-20 -38 -47 -61 0
-20 -38 -56 -61 0
-20 -47 -56 -61 0
-26 -34 -38 -47 0
-26 -34 -38 -56 0
-26 -34 -38 -61 0
-26 -34 -47 -56 0
-26 -34 -47 -61 0
-26 -34 -56 -61 0
-26 -38 -47 -56 0
-26 -38 -47 -61 0
-26 -38 -56 -61 0
-26 -47 -56 -61 0
-34 -38 -47 -56 0
-34 -38 -47 -61 0
-34 -38 -56 -61 0
-34 -47 -56 -61 0
-38 -47 -56 -61 0
-1 -12 -17 -27 0
-1 -12 -17 -33 0
-1 -12 -17 -36 0
-1 -12 -17 -44 0
-1 -12 -17 -52 0
-1 -12 -17 -62 0
-1 -12 -27 -33 0
-1 -12 -27 -36 0
-1 -12 -27 -44 0
-1 -12 -27 -52 0
-1 -12 -27 -62 0
-1 -12 -33 -36 0
-1 -12 -33 -44 0
-1 -12 -33 -52 0
-1 -12 -33 -62 0
-1 -12 -36 -44 0
-1 -12 -36 -52 0
-1 -12 -36 -62 0
-1 -12 -44 -52 0
-1 -12 -44 -62 0
-1 -12 -52 -62 0
-1 -17 -27 -33 0
-1 -17 -27 -36 0
-1 -17 -27 -44 0
-1 -17 -27 -52 0
-1 -17 -27 -62 0
-1 -17 -33 -36 0
-1 -17 -33 -44 0
-1 -17 -33 -52 0
-1 -17 -33 -62 0
-1 -17 -36 -44 0
-1 -17 -36 -52 0
-1 -17 -36 -62 0
-1 -17 -44 -52 0
-1 -17 -44 -62 0
-1 -17 -52 -62 0
-1 -27 -33 -36 0
-1 -27 -33 -44 0
-1 -27 -33 -52 0
-1 -27 -33 -62 0
-1 -27 -36 -44 0
-1 -27 -36 -52 0
-1 -27 -36 -62 0
-1 -27 -44 -52 0
-1 -27 -44 -62 0
-1 -27 -52 -62 0
-1 -33 -36 -44 0
-1 -33 -36 -52 0
-1 -33 -36 -62 0
-1 -33 -44 -52 0
-1 -33 -44 -62 0
-1 -33 -52 -62 0
-1 -36 -44 -52 0
-1 -36 -44 -62 0
-1 -36 -52 -62 0
-1 -44 -52 -62 0
-12 -17 -27 -33 0
-12 -17 -27 -36 0
-12 -17 -27 -44 0
-12 -17 -27 -52 0
-12 -17 -27 -62 0
-12 -17 -33 -36 0
-12 -17 -33 -44 0
-12 -17 -33 -52 0
-12 -17 -33 -62 0
-12 -17 -36 -44 0
-12 -17 -36 -52 0
-12 -17 -36 -62 0
-12 -17 -44 -52 0
-12 -17 -44 -62 0
-12 -17 -52 -62 0
-12 -27 -33 -36 0
-12 -27 -33 -44 0
-12 -27 -33 -52 0
-12 -27 -33 -62 0
-12 -27 -36 -44 0
-12 -27 -36 -52 0
-12 -27 -36 -62 0
-12 -27 -44 -52 0
-12 -27 -44 -62 0
-12 -27 -52 -62 0
-12 -33 -36 -44 0
-12 -33 -36 -52 0
-12 -33 -36 -62 0
-12 -33 -44 -52 0
-12 -33 -44 -62 0
-12 -33 -52 -62 0
-12 -36 -44 -52 0
-12 -36 -44 -62 0
-12 -36 -52 -62 0
-12 -44 -52 -62 0
-17 -27 -33 -36 0
-17 -27 -33 -44 0
-17 -27 -33 -52 0
-17 -27 -33 -62 0
-17 -27 -36 -44 0
-17 -27 -36 -52 0
-17 -27 -36 -62 0
-17 -27 -44 -52 0
-17 -27 -44 -62 0
-17 -27 -52 -62 0
-17 -33 -36 -44 0
-17 -33 -36 -52 0
-17 -33 -36 -62 0
-17 -33 -44 -52 0
-17 -33 -44 -62 0
-17 -33 -52 -62 0
-17 -36 -44 -52 0
-17 -36 -44 -62 0
-17 -36 -52 -62 0
-17 -44 -52 -62 0
-27 -33 -36 -44 0
-27 -33 -36 -52 0
-27 -33 -36 -62 0
-27 -33 -44 -52 0
-27 -33 -44 -62 0
-27 -33 -52 -62 0
-27 -36 -44 -52 0
-27 -36 -44 -62 0
-27 -36 -52 -62 0
-27 -44 -52 -62 0
-33 -36 -44 -52 0
-33 -36 -44 -62 0
-33 -36 -52 -62 0
-33 -44 -52 -62 0
-36 -44 -52 -62 0
-7 -10 -17 -25 0
-7 -10 -17 -35 0
-7 -10 -17 -37 0
-7 -10 -17 -43 0
-7 -10 -17 -55 0
-7 -10 -17 -63 0
-7 -10 -25 -35 0
-7 -10 -25 -37 0
-7 -10 -25 -43 0
-7 -10 -25 -55 0
-7 -10 -25 -63 0
-7 -10 -35 -37 0
-7 -10 -35 -43 0
-7 -10 -35 -55 0
-7 -10 -35 -63 0
-7 -10 -37 -43 0
-7 -10 -37 -55 0
-7 -10 -37 -63 0
-7 -10 -43 -55 0
-7 -10 -43 -63 0
-7 -10 -55 -63 0
-7 -17 -25 -35 0
-7 -17 -25 -37 0
-7 -17 -25 -43 0
-7 -17 -25 -55 0
-7 -17 -25 -63 0
-7 -17 -35 -37 0
-7 -17 -35 -43 0
-7 -17 -35 -55 0
-7 -17 -35 -63 0
-7 -17 -37 -43 0
-7 -17 -37 -55 0
-7 -17 -37 -63 0
-7 -17 -43 -55 0
-7 -17 -43 -63 0
-7 -17 -55 -63 0
-7 -25 -35 -37 0
-7 -25 -35 -43 0
-7 -25 -35 -55 0
-7 -25 -35 -63 0
-7 -25 -37 -43 0
-7 -25 -37 -55 0
-7 -25 -37 -63 0
-7 -25 -43 -55 0
-7 -25 -43 -63 0
-7 -25 -55 -63 0
-7 -35 -37 -43 0
-7 -35 -37 -55 0
-7 -35 -37 -63 0
-7 -35 -43 -55 0
-7 -35 -43 -63 0
-7 -35 -55 -63 0
-7 -37 -43 -55 0
-7 -37 -43 -63 0
-7 -37 -55 -63 0
-7 -43 -55 -63 0
-10 -17 -25 -35 0
-10 -17 -25 -37 0
-10 -17 -25 -43 0
-10 -17 -25 -55 0
-10 -17 -25 -63 0
-10 -17 -35 -37 0
-10 -17 -35 -43 0
-10 -17 -35 -55 0
-10 -17 -35 -63 0
-10 -17 -37 -43 0
-10 -17 -37 -55 0
-10 -17 -37 -63 0
-10 -17 -43 -55 0
-10 -17 -43 -63 0
-10 -17 -55 -63 0
-10 -25 -35 -37 0
-10 -25 -35 -43 0
-10 -25 -35 -55 0
-10 -25 -35 -63 0
-10 -25 -37 -43 0
-10 -25 -37 -55 0
-10 -25 -37 -63 0
-10 -25 -43 -55 0
-10 -25 -43 -63 0
-10 -25 -55 -63 0
-10 -35 -37 -43 0
-10 -35 -37 -55 0
-10 -35 -37 -63 0
-10 -35 -43 -55 0
-10 -35 -43 -63 0
-10 -35 -55 -63 0
-10 -37 -43 -55 0
-10 -37 -43 -63 0
-10 -37 -55 -63 0
-10 -43 -55 -63 0
-17 -25 -35 -37 0
-17 -25 -35 -43 0
-17 -25 -35 -55 0
-17 -25 -35 -63 0
-17 -25 -37 -43 0
-17 -25 -37 -55 0
-17 -25 -37 -63 0
-17 -25 -43 -55 0
-17 -25 -43 -63 0
-17 -25 -55 -63 0
-17 -35 -37 -43 0
-17 -35 -37 -55 0
-17 -35 -37 -63 0
-17 -35 -43 -55 0
-17 -35 -43 -63 0
-17 -35 -55 -63 0
-17 -37 -43 -55 0
-17 -37 -43 -63 0
-17 -37 -55 -63 0
-17 -43 -55 -63 0
-25 -35 -37 -43 0
-25 -35 -37 -55 0
-25 -35 -37 -63 0
-25 -35 -43 -55 0
-25 -35 -43 -63 0
-25 -35 -55 -63 0
-25 -37 -43 -55 0
-25 -37 -43 -63 0
-25 -37 -55 -63 0
-25 -43 -55 -63 0
-35 -37 -43 -55 0
-35 -37 -43 -63 0
-35 -37 -55 -63 0
-35 -43 -55 -63 0
-37 -43 -55 -63 0
-5 -11 -16 -22 0
-5 -11 -16 -30 0
-5 -11 -16 -40 0
-5 -11 -16 -48 0
-5 -11 -16 -51 0
-5 -11 -16 -63 0
-5 -11 -22 -30 0
-5 -11 -22 -40 0
-5 -11 -22 -48 0
-5 -11 -22 -51 0
-5 -11 -22 -63 0
-5 -11 -30 -40 0
-5 -11 -30 -48 0
-5 -11 -30 -51 0
-5 -11 -30 -63 0
-5 -11 -40 -48 0
-5 -11 -40 -51 0
-5 -11 -40 -63 0
-5 -11 -48 -51 0
-5 -11 -48 -63 0
-5 -11 -51 -63 0
-5 -16 -22 -30 0
-5 -16 -22 -40 0
-5 -16 -22 -48 0
-5 -16 -22 -51 0
-5 -16 -22 -63 0
-5 -16 -30 -40 0
-5 -16 -30 -48 0
-5 -16 -30 -51 0
-5 -16 -30 -63 0
-5 -16 -40 -48 0
-5 -16 -40 -51 0
-5 -16 -40 -63 0
-5 -16 -48 -51 0
-5 -16 -48 -63 0
-5 -16 -51 -63 0
-5 -22 -30 -40 0
-5 -22 -30 -48 0
-5 -22 -30 -51 0
-5 -22 -30 -63 0
-5 -22 -40 -48 0
-5 -22 -40 -51 0
-5 -22 -40 -63 0
-5 -22 -48 -51 0
-5 -22 -48 -63 0
-5 -22 -51 -63 0
-5 -30 -40 -48 0
-5 -30 -40 -51 0
-5 -30 -40 -63 0
-5 -30 -48 -51 0
-5 -30 -48 -63 0
-5 -30 -51 -63 0
-5 -40 -48 -51 0
-5 -40 -48 -63 0
-5 -40 -51 -63 0
-5 -48 -51 -63 0
-11 -16 -22 -30 0
-11 -16 -22 -40 0
-11 -16 -22 -48 0
-11 -16 -22 -51 0
-11 -16 -22 -63 0
-11 -16 -30 -40 0
-11 -16 -30 -48 0
-11 -16 -30 -51 0
-11 -16 -30 -63 0
-11 -16 -40 -48 0
-11 -16 -40 -51 0
-11 -16 -40 -63 0
-11 -16 -48 -51 0
-11 -16 -48 -63 0
-11 -16 -51 -63 0
-11 -22 -30 -40 0
-11 -22 -30 -48 0
-11 -22 -30 -51 0
-11 -22 -30 -63 0
-11 -22 -40 -48 0
-11 -22 -40 -51 0
-11 -22 -40 -63 0
-11 -22 -48 -51 0
-11 -22 -48 -63 0
-11 -22 -51 -63 0
-11 -30 -40 -48 0
-11 -30 -40 -51 0
-11 -30 -40 -63 0
-11 -30 -48 -51 0
-11 -30 -48 -63 0
-11 -30 -51 -63 0
-11 -40 -48 -51 0
-11 -40 -48 -63 0
-11 -40 -51 -63 0
-11 -48 -51 -63 0
-16 -22 -30 -40 0
-16 -22 -30 -48 0
-16 -22 -30 -51 0
-16 -22 -30 -63 0
-16 -22 -40 -48 0
-16 -22 -40 -51 0
-16 -22 -40 -63 0
-16 -22 -48 -51 0
-16 -22 -48 -63 0
-16 -22 -51 -63 0
-16 -30 -40 -48 0
-16 -30 -40 -51 0
-16 -30 -40 -63 0
-16 -30 -48 -51 0
-16 -30 -48 -63 0
-16 -30 -51 -63 0
-16 -40 -48 -51 0
-16 -40 -48 -63 0
-16 -40 -51 -63 0
-16 -48 -51 -63 0
-22 -30 -40 -48 0
-22 -30 -40 -51 0
-22 -30 -40 -63 0
-22 -30 -48 -51 0
-22 -30 -48 -63 0
-22 -30 -51 -63 0
-22 -40 -48 -51 0
-22 -40 -48 -63 0
-22 -40 -51 -63 0
-22 -48 -51 -63 0
-30 -40 -48 -51 0
-30 -40 -48 -63 0
-30 -40 -51 -63 0
-30 -48 -51 -63 0
-40 -48 -51 -63 0
-2 -14 -19 -27 0
-2 -14 -19 -34 0
-2 -14 -19 -40 0
-2 -14 -19 -46 0
-2 -14 -19 -55 0
-2 -14 -19 -59 0
-2 -14 -27 -34 0
-2 -14 -27 -40 0
-2 -14 -27 -46 0
-2 -14 -27 -55 0
-2 -14 -27 -59 0
-2 -14 -34 -40 0
-2 -14 -34 -46 0
-2 -14 -34 -55 0
-2 -14 -34 -59 0
-2 -14 -40 -46 0
-2 -14 -40 -55 0
-2 -14 -40 -59 0
-2 -14 -46 -55 0
-2 -14 -46 -59 0
-2 -14 -55 -59 0
-2 -19 -27 -34 0
-2 -19 -27 -40 0
-2 -19 -27 -46 0
-2 -19 -27 -55 0
-2 -19 -27 -59 0
-2 -19 -34 -40 0
-2 -19 -34 -46 0
-2 -19 -34 -55 0
-2 -19 -34 -59 0
-2 -19 -40 -46 0
-2 -19 -40 -55 0
-2 -19 -40 -59 0
-2 -19 -46 -55 0
-2 -19 -46 -59 0
-2 -19 -55 -59 0
-2 -27 -34 -40 0
-2 -27 -34 -46 0
-2 -27 -34 -55 0
-2 -27 -34 -59 0
-2 -27 -40 -46 0
-2 -27 -40 -55 0
-2 -27 -40 -59 0
-2 -27 -46 -55 0
-2 -27 -46 -59 0
-2 -27 -55 -59 0
-2 -34 -40 -46 0
-2 -34 -40 -55 0
-2 -34 -40 -59 0
-2 -34 -46 -55 0
-2 -34 -46 -59 0
-2 -34 -55 -59 0
-2 -40 -46 -55 0
-2 -40 -46 -59 0
-2 -40 -55 -59 0
-2 -46 -55 -59 0
-14 -19 -27 -34 0
-14 -19 -27 -40 0
-14 -19 -27 -46 0
-14 -19 -27 -55 0
-14 -19 -27 -59 0
-14 -19 -34 -40 0
-14 -19 -34 -46 0
-14 -19 -34 -55 0
-14 -19 -34 -59 0
-14 -19 -40 -46 0
-14 -19 -40 -55 0
-14 -19 -40 -59 0
-14 -19 -46 -55 0
-14 -19 -46 -59 0
-14 -19 -55 -59 0
-14 -27 -34 -40 0
-14 -27 -34 -46 0
-14 -27 -34 -55 0
-14 -27 -34 -59 0
-14 -27 -40 -46 0
-14 -27 -40 -55 0
-14 -27 -40 -59 0
-14 -27 -46 -55 0
-14 -27 -46 -59 0
-14 -27 -55 -59 0
-14 -34 -40 -46 0
-14 -34 -40 -55 0
-14 -34 -40 -59 0
-14 -34 -46 -55 0
-14 -34 -46 -59 0
-14 -34 -55 -59 0
-14 -40 -46 -55 0
-14 -40 -46 -59 0
-14 -40 -55 -59 0
-14 -46 -55 -59 0
-19 -27 -34 -40 0
-19 -27 -34 -46 0
-19 -27 -34 -55 0
-19 -27 -34 -59 0
-19 -27 -40 -46 0
-19 -27 -40 -55 0
-19 -27 -40 -59 0
-19 -27 -46 -55 0
-19 -27 -46 -59 0
-19 -27 -55 -59 0
-19 -34 -40 -46 0
-19 -34 -40 -55 0
-19 -34 -40 -59 0
-19 -34 -46 -55 0
-19 -34 -46 -59 0
-19 -34 -55 -59 0
-19 -40 -46 -55 0
-19 -40 -46 -59 0
-19 -40 -55 -59 0
-19 -46 -55 -59 0
-27 -34 -40 -46 0
-27 -34 -40 -55 0
-27 -34 -40 -59 0
-27 -34 -46 -55 0
-27 -34 -46 -59 0
-27 -34 -55 -59 0
-27 -40 -46 -55 0
-27 -40 -46 -59 0
-27 -40 -55 -59 0
-27 -46 -55 -59 0
-34 -40 -46 -55 0
-34 -40 -46 -59 0
-34 -40 -55 -59 0
-34 -46 -55 -59 0
-40 -46 -55 -59 0
-3 -11 -15 -28 0
-3 -11 -15 -31 0
-3 -11 -15 -42 0
-3 -11 -15 -43 0
-3 -11 -15 -50 0
-3 -11 -15 -63 0
-3 -11 -28 -31 0
-3 -11 -28 -42 0
-3 -11 -28 -43 0
-3 -11 -28 -50 0
-3 -11 -28 -63 0
-3 -11 -31 -42 0
-3 -11 -31 -43 0
-3 -11 -31 -50 0
-3 -11 -31 -63 0
-3 -11 -42 -43 0
-3 -11 -42 -50 0
-3 -11 -42 -63 0
-3 -11 -43 -50 0
-3 -11 -43 -63 0
-3 -11 -50 -63 0
-3 -15 -28 -31 0
-3 -15 -28 -42 0
-3 -15 -28 -43 0
-3 -15 -28 -50 0
-3 -15 -28 -63 0
-3 -15 -31 -42 0
-3 -15 -31 -43 0
-3 -15 -31 -50 0
-3 -15 -31 -63 0
-3 -15 -42 -43 0
-3 -15 -42 -50 0
-3 -15 -42 -63 0
-3 -15 -43 -50 0
-3 -15 -43 -63 0
-3 -15 -50 -63 0
-3 -28 -31 -42 0
-3 -28 -31 -43 0
-3 -28 -31 -50 0
-3 -28 -31 -63 0
-3 -28 -42 -43 0
-3 -28 -42 -50 0
-3 -28 -42 -63 0
-3 -28 -43 -50 0
-3 -28 -43 -63 0
-3 -28 -50 -63 0
-3 -31 -42 -43 0
-3 -31 -42 -50 0
-3 -31 -42 -63 0
-3 -31 -43 -50 0
-3 -31 -43 -63 0
-3 -31 -50 -63 0
-3 -42 -43 -50 0
-3 -42 -43 -63 0
-3 -42 -50 -63 0
-3 -43 -50 -63 0
-11 -15 -28 -31 0
-11 -15 -28 -42 0
-11 -15 -28 -43 0
-11 -15 -28 -50 0
-11 -15 -28 -63 0
-11 -15 -31 -42 0
-11 -15 -31 -43 0
-11 -15 -31 -50 0
-11 -15 -31 -63 0
-11 -15 -42 -43 0
-11 -15 -42 -50 0
-11 -15 -42 -63 0
-11 -15 -43 -50 0
-11 -15 -43 -63 0
-11 -15 -50 -63 0
-11 -28 -31 -42 0
-11 -28 -31 -43 0
-11 -28 -31 -50 0
-11 -28 -31 -63 0
-11 -28 -42 -43 0
-11 -28 -42 -50 0
-11 -28 -42 -63 0
-11 -28 -43 -50 0
-11 -28 -43 -63 0
-11 -28 -50 -63 0
-11 -31 -42 -43 0
-11 -31 -42 -50 0
-11 -31 -42 -63 0
-11 -31 -43 -50 0
-11 -31 -43 -63 0
-11 -31 -50 -63 0
-11 -42 -43 -50 0
-11 -42 -43 -63 0
-11 -42 -50 -63 0
-11 -43 -50 -63 0
-15 -28 -31 -42 0
-15 -28 -31 -43 0
-15 -28 -31 -50 0
-15 -28 -31 -63 0
-15 -28 -42 -43 0
-15 -28 -42 -50 0
-15 -28 -42 -63 0
-15 -28 -43 -50 0
-15 -28 -43 -63 0
-15 -28 -50 -63 0
-15 -31 -42 -43 0
-15 -31 -42 -50 0
-15 -31 -42 -63 0
-15 -31 -43 -50 0
-15 -31 -43 -63 0
-15 -31 -50 -63 0
-15 -42 -43 -50 0
-15 -42 -43 -63 0
-15 -42 -50 -63 0
-15 -43 -50 -63 0
-28 -31 -42 -43 0
-28 -31 -42 -50 0
-28 -31 -42 -63 0
-28 -31 -43 -50 0
-28 -31 -43 -63 0
-28 -31 -50 -63 0
-28 -42 -43 -50 0
-28 -42 -43 -63 0
-28 -42 -50 -63 0
-28 -43 -50 -63 0
-31 -42 -43 -50 0
-31 -42 -43 -63 0
-31 -42 -50 -63 0
-31 -43 -50 -63 0
-42 -43 -50 -63 0
-5 -10 -15 -23 0
-5 -10 -15 -30 0
-5 -10 -15 -36 0
-5 -10 -15 -49 0
-5 -10 -15 -53 0
-5 -10 -15 -60 0
-5 -10 -23 -30 0
-5 -10 -23 -36 0
-5 -10 -23 -49 0
-5 -10 -23 -53 0
-5 -10 -23 -60 0
-5 -10 -30 -36 0
-5 -10 -30 -49 0
-5 -10 -30 -53 0
-5 -10 -30 -60 0
-5 -10 -36 -49 0
-5 -10 -36 -53 0
-5 -10 -36 -60 0
-5 -10 -49 -53 0
-5 -10 -49 -60 0
-5 -10 -53 -60 0
-5 -15 -23 -30 0
-5 -15 -23 -36 0
-5 -15 -23 -49 0
-5 -15 -23 -53 0
-5 -15 -23 -60 0
-5 -15 -30 -36 0
-5 -15 -30 -49 0
-5 -15 -30 -53 0
-5 -15 -30 -60 0
-5 -15 -36 -49 0
-5 -15 -36 -53 0
-5 -15 -36 -60 0
-5 -15 -49 -53 0
-5 -15 -49 -60 0
-5 -15 -53 -60 0
-5 -23 -30 -36 0
-5 -23 -30 -49 0
-5 -23 -30 -53 0
-5 -23 -30 -60 0
-5 -23 -36 -49 0
-5 -23 -36 -53 0
-5 -23 -36 -60 0
-5 -23 -49 -53 0
-5 -23 -49 -60 0
-5 -23 -53 -60 0
-5 -30 -36 -49 0
-5 -30 -36 -53 0
-5 -30 -36 -60 0
-5 -30 -49 -53 0
-5 -30 -49 -60 0
-5 -30 -53 -60 0
-5 -36 -49 -53 0
-5 -36 -49 -60 0
-5 -36 -53 -60 0
-5 -49 -53 -60 0
-10 -15 -23 -30 0
-10 -15 -23 -36 0
-10 -15 -23 -49 0
-10 -15 -23 -53 0
-10 -15 -23 -60 0
-10 -15 -30 -36 0
-10 -15 -30 -49 0
-10 -15 -30 -53 0
-10 -15 -30 -60 0
-10 -15 -36 -49 0
-10 -15 -36 -53 0
-10 -15 -36 -60 0
-10 -15 -49 -53 0
-10 -15 -49 -60 0
-10 -15 -53 -60 0
-10 -23 -30 -36 0
-10 -23 -30 -49 0
-10 -23 -30 -53 0
-10 -23 -30 -60 0
-10 -23 -36 -49 0
-10 -23 -36 -53 0
-10 -23 -36 -60 0
-10 -23 -49 -53 0
-10 -23 -49 -60 0
-10 -23 -53 -60 0
-10 -30 -36 -49 0
-10 -30 -36 -53 0
-10 -30 -36 -60 0
-10 -30 -49 -53 0
-10 -30 -49 -60 0
-10 -30 -53 -60 0
-10 -36 -49 -53 0
-10 -36 -49 -60 0
-10 -36 -53 -60 0
-10 -49 -53 -60 0
-15 -23 -30 -36 0
-15 -23 -30 -49 0
-15 -23 -30 -53 0
-15 -23 -30 -60 0
-15 -23 -36 -49 0
-15 -23 -36 -53 0
-15 -23 -36 -60 0
-15 -23 -49 -53 0
-15 -23 -49 -60 0
-15 -23 -53 -60 0
-15 -30 -36 -49 0
-15 -30 -36 -53 0
-15 -30 -36 -60 0
-15 -30 -49 -53 0
-15 -30 -49 -60 0
-15 -30 -53 -60 0
-15 -36 -49 -53 0
-15 -36 -49 -60 0
-15 -36 -53 -60 0
-15 -49 -53 -60 0
-23 -30 -36 -49 0
-23 -30 -36 -53 0
-23 -30 -36 -60 0
-23 -30 -49 -53 0
-23 -30 -49 -60 0
-23 -30 -53 -60 0
-23 -36 -49 -53 0
-23 -36 -49 -60 0
-23 -36 -53 -60 0
-23 -49 -53 -60 0
-30 -36 -49 -53 0
-30 -36 -49 -60 0
-30 -36 -53 -60 0
-30 -49 -53 -60 0
-36 -49 -53 -60 0
-5 -10 -18 -23 0
-5 -10 -18 -33 0
-5 -10 -18 -37 0
-5 -10 -18 -47 0
-5 -10 -18 -56 0
-5 -10 -18 -63 0
-5 -10 -23 -33 0
-5 -10 -23 -37 0
-5 -10 -23 -47 0
-5 -10 -23 -56 0
-5 -10 -23 -63 0
-5 -10 -33 -37 0
-5 -10 -33 -47 0
-5 -10 -33 -56 0
-5 -10 -33 -63 0
-5 -10 -37 -47 0
-5 -10 -37 -56 0
-5 -10 -37 -63 0
-5 -10 -47 -56 0
-5 -10 -47 -63 0
-5 -10 -56 -63 0
-5 -18 -23 -33 0
-5 -18 -23 -37 0
-5 -18 -23 -47 0
-5 -18 -23 -56 0
-5 -18 -23 -63 0
-5 -18 -33 -37 0
-5 -18 -33 -47 0
-5 -18 -33 -56 0
-5 -18 -33 -63 0
-5 -18 -37 -47 0
-5 -18 -37 -56 0
-5 -18 -37 -63 0
-5 -18 -47 -56 0
-5 -18 -47 -63 0
-5 -18 -56 -63 0
-5 -23 -33 -37 0
-5 -23 -33 -47 0
-5 -23 -33 -56 0
-5 -23 -33 -63 0
-5 -23 -37 -47 0
-5 -23 -37 -56 0
-5 -23 -37 -63 0
-5 -23 -47 -56 0
-5 -23 -47 -63 0
-5 -23 -56 -63 0
-5 -33 -37 -47 0
-5 -33 -37 -56 0
-5 -33 -37 -63 0
-5 -33 -47 -56 0
-5 -33 -47 -63 0
-5 -33 -56 -63 0
-5 -37 -47 -56 0
-5 -37 -47 -63 0
-5 -37 -56 -63 0
-5 -47 -56 -63 0
-10 -18 -23 -33 0
-10 -18 -23 -37 0
-10 -18 -23 -47 0
-10 -18 -23 -56 0
-10 -18 -23 -63 0
-10 -18 -33 -37 0
-10 -18 -33 -47 0
-10 -18 -33 -56 0
-10 -18 -33 -63 0
-10 -18 -37 -47 0
-10 -18 -37 -56 0
-10 -18 -37 -63 0
-10 -18 -47 -56 0
-10 -18 -47 -63 0
-10 -18 -56 -63 0
-10 -23 -33 -37 0
-10 -23 -33 -47 0
-10 -23 -33 -56 0
-10 -23 -33 -63 0
-10 -23 -37 -47 0
-10 -23 -37 -56 0
-10 -23 -37 -63 0
-10 -23 -47 -56 0
-10 -23 -47 -63 0
-10 -23 -56 -63 0
-10 -33 -37 -47 0
-10 -33 -37 -56 0
-10 -33 -37 -63 0
-10 -33 -47 -56 0
-10 -33 -47 -63 0
-10 -33 -56 -63 0
-10 -37 -47 -56 0
-10 -37 -47 -63 0
-10 -37 -56 -63 0
-10 -47 -56 -63 0
-18 -23 -33 -37 0
-18 -23 -33 -47 0
-18 -23 -33 -56 0
-18 -23 -33 -63 0
-18 -23 -37 -47 0
-18 -23 -37 -56 0
-18 -23 -37 -63 0
-18 -23 -47 -56 0
-18 -23 -47 -63 0
-18 -23 -56 -63 0
-18 -33 -37 -47 0
-18 -33 -37 -56 0
-18 -33 -37 -63 0
-18 -33 -47 -56 0
-18 -33 -47 -63 0
-18 -33 -56 -63 0
-18 -37 -47 -56 0
-18 -37 -47 -63 0
-18 -37 -56 -63 0
-18 -47 -56 -63 0
-23 -33 -37 -47 0
-23 -33 -37 -56 0
-23 -33 -37 -63 0
-23 -33 -47 -56 0
-23 -33 -47 -63 0
-23 -33 -56 -63 0
-23 -37 -47 -56 0
-23 -37 -47 -63 0
-23 -37 -56 -63 0
-23 -47 -56 -63 0
-33 -37 -47 -56 0
-33 -37 -47 -63 0
-33 -37 -56 -63 0
-33 -47 -56 -63 0
-37 -47 -56 -63 0
-6 -10 -20 -25 0
-6 -10 -20 -32 0
-6 -10 -20 -38 0
-6 -10 -20 -46 0
-6 -10 -20 -53 0
-6 -10 -20 -57 0
-6 -10 -25 -32 0
-6 -10 -25 -38 0
-6 -10 -25 -46 0
-6 -10 -25 -53 0
-6 -10 -25 -57 0
-6 -10 -32 -38 0
-6 -10 -32 -46 0
-6 -10 -32 -53 0
-6 -10 -32 -57 0
-6 -10 -38 -46 0
-6 -10 -38 -53 0
-6 -10 -38 -57 0
-6 -10 -46 -53 0
-6 -10 -46 -57 0
-6 -10 -53 -57 0
-6 -20 -25 -32 0
-6 -20 -25 -38 0
-6 -20 -25 -46 0
-6 -20 -25 -53 0
-6 -20 -25 -57 0
-6 -20 -32 -38 0
-6 -20 -32 -46 0
-6 -20 -32 -53 0
-6 -20 -32 -57 0
-6 -20 -38 -46 0
-6 -20 -38 -53 0
-6 -20 -38 -57 0
-6 -20 -46 -53 0
-6 -20 -46 -57 0
-6 -20 -53 -57 0
-6 -25 -32 -38 0
-6 -25 -32 -46 0
-6 -25 -32 -53 0
-6 -25 -32 -57 0
-6 -25 -38 -46 0
-6 -25 -38 -53 0
-6 -25 -38 -57 0
-6 -25 -46 -53 0
-6 -25 -46 -57 0
-6 -25 -53 -57 0
-6 -32 -38 -46 0
-6 -32 -38 -53 0
-6 -32 -38 -57 0
-6 -32 -46 -53 0
-6 -32 -46 -57 0
-6 -32 -53 -57 0
-6 -38 -46 -53 0
-6 -38 -46 -57 0
-6 -38 -53 -57 0
-6 -46 -53 -57 0
-10 -20 -25 -32 0
-10 -20 -25 -38 0
-10 -20 -25 -46 0
-10 -20 -25 -53 0
-10 -20 -25 -57 0
-10 -20 -32 -38 0
-10 -20 -32 -46 0
-10 -20 -32 -53 0
-10 -20 -32 -57 0
-10 -20 -38 -46 0
-10 -20 -38 -53 0
-10 -20 -38 -57 0
-10 -20 -46 -53 0
-10 -20 -46 -57 0
-10 -20 -53 -57 0
-10 -25 -32 -38 0
-10 -25 -32 -46 0
-10 -25 -32 -53 0
-10 -25 -32 -57 0
-10 -25 -38 -46 0
-10 -25 -38 -53 0
-10 -25 -38 -57 0
-10 -25 -46 -53 0
-10 -25 -46 -57 0
-10 -25 -53 -57 0
-10 -32 -38 -46 0
-10 -32 -38 -53 0
-10 -32 -38 -57 0
-10 -32 -46 -53 0
-10 -32 -46 -57 0
-10 -32 -53 -57 0
-10 -38 -46 -53 0
-10 -38 -46 -57 0
-10 -38 -53 -57 0
-10 -46 -53 -57 0
-20 -25 -32 -38 0
-20 -25 -32 -46 0
-20 -25 -32 -53 0
-20 -25 -32 -57 0
-20 -25 -38 -46 0
-20 -25 -38 -53 0
-20 -25 -38 -57 0
-20 -25 -46 -53 0
-20 -25 -46 -57 0
-20 -25 -53 -57 0
-20 -32 -38 -46 0
-20 -32 -38 -53 0
-20 -32 -38 -57 0
-20 -32 -46 -53 0
-20 -32 -46 -57 0
-20 -32 -53 -57 0
-20 -38 -46 -53 0
-20 -38 -46 -57 0
-20 -38 -53 -57 0
-20 -46 -53 -57 0
-25 -32 -38 -46 0
-25 -32 -38 -53 0
-25 -32 -38 -57 0
-25 -32 -46 -53 0
-25 -32 -46 -57 0
-25 -32 -53 -57 0
-25 -38 -46 -53 0
-25 -38 -46 -57 0
-25 -38 -53 -57 0
-25 -46 -53 -57 0
-32 -38 -46 -53 0
-32 -38 -46 -57 0
-32 -38 -53 -57 0
-32 -46 -53 -57 0
-38 -46 -53 -57 0
-7 -14 -15 -28 0
-7 -14 -15 -33 0
-7 -14 -15 -39 0
-7 -14 -15 -48 0
-7 -14 -15 -54 0
-7 -14 -15 -57 0
-7 -14 -28 -33 0
-7 -14 -28 -39 0
-7 -14 -28 -48 0
-7 -14 -28 -54 0
-7 -14 -28 -57 0
-7 -14 -33 -39 0
-7 -14 -33 -48 0
-7 -14 -33 -54 0
-7 -14 -33 -57 0
-7 -14 -39 -48 0
-7 -14 -39 -54 0
-7 -14 -39 -57 0
-7 -14 -48 -54 0
-7 -14 -48 -57 0
-7 -14 -54 -57 0
-7 -15 -28 -33 0
-7 -15 -28 -39 0
-7 -15 -28 -48 0
-7 -15 -28 -54 0
-7 -15 -28 -57 0
-7 -15 -33 -39 0
-7 -15 -33 -48 0
-7 -15 -33 -54 0
-7 -15 -33 -57 0
-7 -15 -39 -48 0
-7 -15 -39 -54 0
-7 -15 -39 -57 0
-7 -15 -48 -54 0
-7 -15 -48 -57 0
-7 -15 -54 -57 0
-7 -28 -33 -39 0
-7 -28 -33 -48 0
-7 -28 -33 -54 0
-7 -28 -33 -57 0
-7 -28 -39 -48 0
-7 -28 -39 -54 0
-7 -28 -39 -57 0
-7 -28 -48 -54 0
-7 -28 -48 -57 0
-7 -28 -54 -57 0
-7 -33 -39 -48 0
-7 -33 -39 -54 0
-7 -33 -39 -57 0
-7 -33 -48 -54 0
-7 -33 -48 -57 0
-7 -33 -54 -57 0
-7 -39 -48 -54 0
-7 -39 -48 -57 0
-7 -39 -54 -57 0
-7 -48 -54 -57 0
-14 -15 -28 -33 0
-14 -15 -28 -39 0
-14 -15 -28 -48 0
-14 -15 -28 -54 0
-14 -15 -28 -57 0
-14 -15 -33 -39 0
-14 -15 -33 -48 0
-14 -15 -33 -54 0
-14 -15 -33 -57 0
-14 -15 -39 -48 0
-14 -15 -39 -54 0
-14 -15 -39 -57 0
-14 -15 -48 -54 0
-14 -15 -48 -57 0
-14 -15 -54 -57 0
-14 -28 -33 -39 0
-14 -28 -33 -48 0
-14 -28 -33 -54 0
-14 -28 -33 -57 0
-14 -28 -39 -48 0
-14 -28 -39 -54 0
-14 -28 -39 -57 0
-14 -28 -48 -54 0
-14 -28 -48 -57 0
-14 -28 -54 -57 0
-14 -33 -39 -48 0
-14 -33 -39 -54 0
-14 -33 -39 -57 0
-14 -33 -48 -54 0
-14 -33 -48 -57 0
-14 -33 -54 -57 0
-14 -39 -48 -54 0
-14 -39 -48 -57 0
-14 -39 -54 -57 0
-14 -48 -54 -57 0
-15 -28 -33 -39 0
-15 -28 -33 -48 0
-15 -28 -33 -54 0
-15 -28 -33 -57 0
-15 -28 -39 -48 0
-15 -28 -39 -54 0
-15 -28 -39 -57 0
-15 -28 -48 -54 0
-15 -28 -48 -57 0
-15 -28 -54 -57 0
-15 -33 -39 -48 0
-15 -33 -39 -54 0
-15 -33 -39 -57 0
-15 -33 -48 -54 0
-15 -33 -48 -57 0
-15 -33 -54 -57 0
-15 -39 -48 -54 0
-15 -39 -48 -57 0
-15 -39 -54 -57 0
-15 -48 -54 -57 0
-28 -33 -39 -48 0
-28 -33 -39 -54 0
-28 -33 -39 -57 0
-28 -33 -48 -54 0
-28 -33 -48 -57 0
-28 -33 -54 -57 0
-28 -39 -48 -54 0
-28 -39 -48 -57 0
-28 -39 -54 -57 0
-28 -48 -54 -57 0
-33 -39 -48 -54 0
-33 -39 -48 -57 0
-33 -39 -54 -57 0
-33 -48 -54 -57 0
-39 -48 -54 -57 0
-1 -14 -21 -28 0
-1 -14 -21 -34 0
-1 -14 -21 -42 0
-1 -14 -21 -49 0
-1 -14 -21 -51 0
-1 -14 -21 -60 0
-1 -14 -28 -34 0
-1 -14 -28 -42 0
-1 -14 -28 -49 0
-1 -14 -28 -51 0
-1 -14 -28 -60 0
-1 -14 -34 -42 0
-1 -14 -34 -49 0
-1 -14 -34 -51 0
-1 -14 -34 -60 0
-1 -14 -42 -49 0
-1 -14 -42 -51 0
-1 -14 -42 -60 0
-1 -14 -49 -51 0
-1 -14 -49 -60 0
-1 -14 -51 -60 0
-1 -21 -28 -34 0
-1 -21 -28 -42 0
-1 -21 -28 -49 0
-1 -21 -28 -51 0
-1 -21 -28 -60 0
-1 -21 -34 -42 0
-1 -21 -34 -49 0
-1 -21 -34 -51 0
-1 -21 -34 -60 0
-1 -21 -42 -49 0
-1 -21 -42 -51 0
-1 -21 -42 -60 0
-1 -21 -49 -51 0
-1 -21 -49 -60 0
-1 -21 -51 -60 0
-1 -28 -34 -42 0
-1 -28 -34 -49 0
-1 -28 -34 -51 0
-1 -28 -34 -60 0
-1 -28 -42 -49 0
-1 -28 -42 -51 0
-1 -28 -42 -60 0
-1 -28 -49 -51 0
-1 -28 -49 -60 0
-1 -28 -51 -60 0
-1 -34 -42 -49 0
-1 -34 -42 -51 0
-1 -34 -42 -60 0
-1 -34 -49 -51 0
-1 -34 -49 -60 0
-1 -34 -51 -60 0
-1 -42 -49 -51 0
-1 -42 -49 -60 0
-1 -42 -51 -60 0
-1 -49 -51 -60 0
-14 -21 -28 -34 0
-14 -21 -28 -42 0
-14 -21 -28 -49 0
-14 -21 -28 -51 0
-14 -21 -28 -60 0
-14 -21 -34 -42 0
-14 -21 -34 -49 0
-14 -21 -34 -51 0
-14 -21 -34 -60 0
-14 -21 -42 -49 0
-14 -21 -42 -51 0
-14 -21 -42 -60 0
-14 -21 -49 -51 0
-14 -21 -49 -60 0
-14 -21 -51 -60 0
-14 -28 -34 -42 0
-14 -28 -34 -49 0
-14 -28 -34 -51 0
-14 -28 -34 -60 0
-14 -28 -42 -49 0
-14 -28 -42 -51 0
-14 -28 -42 -60 0
-14 -28 -49 -51 0
-14 -28 -49 -60 0
-14 -28 -51 -60 0
-14 -34 -42 -49 0
-14 -34 -42 -51 0
-14 -34 -42 -60 0
-14 -34 -49 -51 0
-14 -34 -49 -60 0
-14 -34 -51 -60 0
-14 -42 -49 -51 0
-14 -42 -49 -60 0
-14 -42 -51 -60 0
-14 -49 -51 -60 0
-21 -28 -34 -42 0
-21 -28 -34 -49 0
-21 -28 -34 -51 0
-21 -28 -34 -60 0
-21 -28 -42 -49 0
-21 -28 -42 -51 0
-21 -28 -42 -60 0
-21 -28 -49 -51 0
-21 -28 -49 -60 0
-21 -28 -51 -60 0
-21 -34 -42 -49 0
-21 -34 -42 -51 0
-21 -34 -42 -60 0
-21 -34 -49 -51 0
-21 -34 -49 -60 0
-21 -34 -51 -60 0
-21 -42 -49 -51 0
-21 -42 -49 -60 0
-21 -42 -51 -60 0
-21 -49 -51 -60 0
-28 -34 -42 -49 0
-28 -34 -42 -51 0
-28 -34 -42 -60 0
-28 -34 -49 -51 0
-28 -34 -49 -60 0
-28 -34 -51 -60 0
-28 -42 -49 -51 0
-28 -42 -49 -60 0
-28 -42 -51 -60 0
-28 -49 -51 -60 0
-34 -42 -49 -51 0
-34 -42 -49 -60 0
-34 -42 -51 -60 0
-34 -49 -51 -60 0
-42 -49 -51 -60 0
-1 -8 -16 -27 0
-1 -8 -16 -29 0
-1 -8 -16 -36 0
-1 -8 -16 -43 0
-1 -8 -16 -53 0
-1 -8 -16 -61 0
-1 -8 -27 -29 0
-1 -8 -27 -36 0
-1 -8 -27 -43 0
-1 -8 -27 -53 0
-1 -8 -27 -61 0
-1 -8 -29 -36 0
-1 -8 -29 -43 0
-1 -8 -29 -53 0
-1 -8 -29 -61 0
-1 -8 -36 -43 0
-1 -8 -36 -53 0
-1 -8 -36 -61 0
-1 -8 -43 -53 0
-1 -8 -43 -61 0
-1 -8 -53 -61 0
-1 -16 -27 -29 0
-1 -16 -27 -36 0
-1 -16 -27 -43 0
-1 -16 -27 -53 0
-1 -16 -27 -61 0
-1 -16 -29 -36 0
-1 -16 -29 -43 0
-1 -16 -29 -53 0
-1 -16 -29 -61 0
-1 -16 -36 -43 0
-1 -16 -36 -53 0
-1 -16 -36 -61 0
-1 -16 -43 -53 0
-1 -16 -43 -61 0
-1 -16 -53 -61 0
-1 -27 -29 -36 0
-1 -27 -29 -43 0
-1 -27 -29 -53 0
-1 -27 -29 -61 0
-1 -27 -36 -43 0
-1 -27 -36 -53 0
-1 -27 -36 -61 0
-1 -27 -43 -53 0
-1 -27 -43 -61 0
-1 -27 -53 -61 0
-1 -29 -36 -43 0
-1 -29 -36 -53 0
-1 -29 -36 -61 0
-1 -29 -43 -53 0
-1 -29 -43 -61 0
-1 -29 -53 -61 0
-1 -36 -43 -53 0
-1 -36 -43 -61 0
-1 -36 -53 -61 0
-1 -43 -53 -61 0
-8 -16 -27 -29 0
-8 -16 -27 -36 0
-8 -16 -27 -43 0
-8 -16 -27 -53 0
-8 -16 -27 -61 0
-8 -16 -29 -36 0
-8 -16 -29 -43 0
-8 -16 -29 -53 0
-8 -16 -29 -61 0
-8 -16 -36 -43 0
-8 -16 -36 -53 0
-8 -16 -36 -61 0
-8 -16 -43 -53 0
-8 -16 -43 -61 0
-8 -16 -53 -61 0
-8 -27 -29 -36 0
-8 -27 -29 -43 0
-8 -27 -29 -53 0
-8 -27 -29 -61 0
-8 -27 -36 -43 0
-8 -27 -36 -53 0
-8 -27 -36 -61 0
-8 -27 -43 -53 0
-8 -27 -43 -61 0
-8 -27 -53 -61 0
-8 -29 -36 -43 0
-8 -29 -36 -53 0
-8 -29 -36 -61 0
-8 -29 -43 -53 0
-8 -29 -43 -61 0
-8 -29 -53 -61 0
-8 -36 -43 -53 0
-8 -36 -43 -61 0
-8 -36 -53 -61 0
-8 -43 -53 -61 0
-16 -27 -29 -36 0
-16 -27 -29 -43 0
-16 -27 -29 -53 0
-16 -27 -29 -61 0
-16 -27 -36 -43 0
-16 -27 -36 -53 0
-16 -27 -36 -61 0
-16 -27 -43 -53 0
-16 -27 -43 -61 0
-16 -27 -53 -61 0
-16 -29 -36 -43 0
-16 -29 -36 -53 0
-16 -29 -36 -61 0
-16 -29 -43 -53 0
-16 -29 -43 -61 0
-16 -29 -53 -61 0
-16 -36 -43 -53 0
-16 -36 -43 -61 0
-16 -36 -53 -61 0
-16 -43 -53 -61 0
-27 -29 -36 -43 0
-27 -29 -36 -53 0
-27 -29 -36 -61 0
-27 -29 -43 -53 0
-27 -29 -43 -61 0
-27 -29 -53 -61 0
-27 -36 -43 -53 0
-27 -36 -43 -61 0
-27 -36 -53 -61 0
-27 -43 -53 -61 0
-29 -36 -43 -53 0
-29 -36 -43 -61 0
-29 -36 -53 -61 0
-29 -43 -53 -61 0
-36 -43 -53 -61 0
-5 -9 -19 -25 0
-5 -9 -19 -29 0
-5 -9 -19 -38 0
-5 -9 -19 -47 0
-5 -9 -19 -55 0
-5 -9 -19 -59 0
-5 -9 -25 -29 0
-5 -9 -25 -38 0
-5 -9 -25 -47 0
-5 -9 -25 -55 0
-5 -9 -25 -59 0
-5 -9 -29 -38 0
-5 -9 -29 -47 0
-5 -9 -29 -55 0
-5 -9 -29 -59 0
-5 -9 -38 -47 0
-5 -9 -38 -55 0
-5 -9 -38 -59 0
-5 -9 -47 -55 0
-5 -9 -47 -59 0
-5 -9 -55 -59 0
-5 -19 -25 -29 0
-5 -19 -25 -38 0
-5 -19 -25 -47 0
-5 -19 -25 -55 0
-5 -19 -25 -59 0
-5 -19 -29 -38 0
-5 -19 -29 -47 0
-5 -19 -29 -55 0
-5 -19 -29 -59 0
-5 -19 -38 -47 0
-5 -19 -38 -55 0
-5 -19 -38 -59 0
-5 -19 -47 -55 0
-5 -19 -47 -59 0
-5 -19 -55 -59 0
-5 -25 -29 -38 0
-5 -25 -29 -47 0
-5 -25 -29 -55 0
-5 -25 -29 -59 0
-5 -25 -38 -47 0
-5 -25 -38 -55 0
-5 -25 -38 -59 0
-5 -25 -47 -55 0
-5 -25 -47 -59 0
-5 -25 -55 -59 0
-5 -29 -38 -47 0
-5 -29 -38 -55 0
-5 -29 -38 -59 0
-5 -29 -47 -55 0
-5 -29 -47 -59 0
-5 -29 -55 -59 0
-5 -38 -47 -55 0
-5 -38 -47 -59 0
-5 -38 -55 -59 0
-5 -47 -55 -59 0
-9 -19 -25 -29 0
-9 -19 -25 -38 0
-9 -19 -25 -47 0
-9 -19 -25 -55 0
-9 -19 -25 -59 0
-9 -19 -29 -38 0
-9 -19 -29 -47 0
-9 -19 -29 -55 0
-9 -19 -29 -59 0
-9 -19 -38 -47 0
-9 -19 -38 -55 0
-9 -19 -38 -59 0
-9 -19 -47 -55 0
-9 -19 -47 -59 0
-9 -19 -55 -59 0
-9 -25 -29 -38 0
-9 -25 -29 -47 0
-9 -25 -29 -55 0
-9 -25 -29 -59 0
-9 -25 -38 -47 0
-9 -25 -38 -55 0
-9 -25 -38 -59 0
-9 -25 -47 -55 0
-9 -25 -47 -59 0
-9 -25 -55 -59 0
-9 -29 -38 -47 0
-9 -29 -38 -55 0
-9 -29 -38 -59 0
-9 -29 -47 -55 0
-9 -29 -47 -59 0
-9 -29 -55 -59 0
-9 -38 -47 -55 0
-9 -38 -47 -59 0
-9 -38 -55 -59 0
-9 -47 -55 -59 0
-19 -25 -29 -38 0
-19 -25 -29 -47 0
-19 -25 -29 -55 0
-19 -25 -29 -59 0
-19 -25 -38 -47 0
-19 -25 -38 -55 0
-19 -25 -38 -59 0
-19 -25 -47 -55 0
-19 -25 -47 -59 0
-19 -25 -55 -59 0
-19 -29 -38 -47 0
-19 -29 -38 -55 0
-19 -29 -38 -59 0
-19 -29 -47 -55 0
-19 -29 -47 -59 0
-19 -29 -55 -59 0
-19 -38 -47 -55 0
-19 -38 -47 -59 0
-19 -38 -55 -59 0
-19 -47 -55 -59 0
-25 -29 -38 -47 0
-25 -29 -38 -55 0
-25 -29 -38 -59 0
-25 -29 -47 -55 0
-25 -29 -47 -59 0
-25 -29 -55 -59 0
-25 -38 -47 -55 0
-25 -38 -47 -59 0
-25 -38 -55 -59 0
-25 -47 -55 -59 0
-29 -38 -47 -55 0
-29 -38 -47 -59 0
-29 -38 -55 -59 0
-29 -47 -55 -59 0
-38 -47 -55 -59 0
-5 -13 -16 -25 0
-5 -13 -16 -31 0
-5 -13 -16 -36 0
-5 -13 -16 -46 0
-5 -13 -16 -56 0
-5 -13 -16 -62 0
-5 -13 -25 -31 0
-5 -13 -25 -36 0
-5 -13 -25 -46 0
-5 -13 -25 -56 0
-5 -13 -25 -62 0
-5 -13 -31 -36 0
-5 -13 -31 -46 0
-5 -13 -31 -56 0
-5 -13 -31 -62 0
-5 -13 -36 -46 0
-5 -13 -36 -56 0
-5 -13 -36 -62 0
-5 -13 -46 -56 0
-5 -13 -46 -62 0
-5 -13 -56 -62 0
-5 -16 -25 -31 0
-5 -16 -25 -36 0
-5 -16 -25 -46 0
-5 -16 -25 -56 0
-5 -16 -25 -62 0
-5 -16 -31 -36 0
-5 -16 -31 -46 0
-5 -16 -31 -56 0
-5 -16 -31 -62 0
-5 -16 -36 -46 0
-5 -16 -36 -56 0
-5 -16 -36 -62 0
-5 -16 -46 -56 0
-5 -16 -46 -62 0
-5 -16 -56 -62 0
-5 -25 -31 -36 0
-5 -25 -31 -46 0
-5 -25 -31 -56 0
-5 -25 -31 -62 0
-5 -25 -36 -46 0
-5 -25 -36 -56 0
-5 -25 -36 -62 0
-5 -25 -46 -56 0
-5 -25 -46 -62 0
-5 -25 -56 -62 0
-5 -31 -36 -46 0
-5 -31 -36 -56 0
-5 -31 -36 -62 0
-5 -31 -46 -56 0
-5 -31 -46 -62 0
-5 -31 -56 -62 0
-5 -36 -46 -56 0
-5 -36 -46 -62 0
-5 -36 -56 -62 0
-5 -46 -56 -62 0
-13 -16 -25 -31 0
-13 -16 -25 -36 0
-13 -16 -25 -46 0
-13 -16 -25 -56 0
-13 -16 -25 -62 0
-13 -16 -31 -36 0
-13 -16 -31 -46 0
-13 -16 -31 -56 0
-13 -16 -31 -62 0
-13 -16 -36 -46 0
-13 -16 -36 -56 0
-13 -16 -36 -62 0
-13 -16 -46 -56 0
-13 -16 -46 -62 0
-13 -16 -56 -62 0
-13 -25 -31 -36 0
-13 -25 -31 -46 0
-13 -25 -31 -56 0
-13 -25 -31 -62 0
-13 -25 -36 -46 0
-13 -25 -36 -56 0
-13 -25 -36 -62 0
-13 -25 -46 -56 0
-13 -25 -46 -62 0
-13 -25 -56 -62 0
-13 -31 -36 -46 0
-13 -31 -36 -56 0
-13 -31 -36 -62 0
-13 -31 -46 -56 0
-13 -31 -46 -62 0
-13 -31 -56 -62 0
-13 -36 -46 -56 0
-13 -36 -46 -62 0
-13 -36 -56 -62 0
-13 -46 -56 -62 0
-16 -25 -31 -36 0
-16 -25 -31 -46 0
-16 -25 -31 -56 0
-16 -25 -31 -62 0
-16 -25 -36 -46 0
-16 -25 -36 -56 0
-16 -25 -36 -62 0
-16 -25 -46 -56 0
-16 -25 -46 -62 0
-16 -25 -56 -62 0
-16 -31 -36 -46 0
-16 -31 -36 -56 0
-16 -31 -36 -62 0
-16 -31 -46 -56 0
-16 -31 -46 -62 0
-16 -31 -56 -62 0
-16 -36 -46 -56 0
-16 -36 -46 -62 0
-16 -36 -56 -62 0
-16 -46 -56 -62 0
-25 -31 -36 -46 0
-25 -31 -36 -56 0
-25 -31 -36 -62 0
-25 -31 -46 -56 0
-25 -31 -46 -62 0
-25 -31 -56 -62 0
-25 -36 -46 -56 0
-25 -36 -46 -62 0
-25 -36 -56 -62 0
-25 -46 -56 -62 0
-31 -36 -46 -56 0
-31 -36 -46 -62 0
-31 -36 -56 -62 0
-31 -46 -56 -62 0
-36 -46 -56 -62 0
-6 -12 -17 -24 0
-6 -12 -17 -31 0
-6 -12 -17 -40 0
-6 -12 -17 -47 0
-6 -12 -17 -51 0
-6 -12 -17 -62 0
-6 -12 -24 -31 0
-6 -12 -24 -40 0
-6 -12 -24 -47 0
-6 -12 -24 -51 0
-6 -12 -24 -62 0
-6 -12 -31 -40 0
-6 -12 -31 -47 0
-6 -12 -31 -51 0
-6 -12 -31 -62 0
-6 -12 -40 -47 0
-6 -12 -40 -51 0
-6 -12 -40 -62 0
-6 -12 -47 -51 0
-6 -12 -47 -62 0
-6 -12 -51 -62 0
-6 -17 -24 -31 0
-6 -17 -24 -40 0
-6 -17 -24 -47 0
-6 -17 -24 -51 0
-6 -17 -24 -62 0
-6 -17 -31 -40 0
-6 -17 -31 -47 0
-6 -17 -31 -51 0
-6 -17 -31 -62 0
-6 -17 -40 -47 0
-6 -17 -40 -51 0
-6 -17 -40 -62 0
-6 -17 -47 -51 0
-6 -17 -47 -62 0
-6 -17 -51 -62 0
-6 -24 -31 -40 0
-6 -24 -31 -47 0
-6 -24 -31 -51 0
-6 -24 -31 -62 0
-6 -24 -40 -47 0
-6 -24 -40 -51 0
-6 -24 -40 -62 0
-6 -24 -47 -51 0
-6 -24 -47 -62 0
-6 -24 -51 -62 0
-6 -31 -40 -47 0
-6 -31 -40 -51 0
-6 -31 -40 -62 0
-6 -31 -47 -51 0
-6 -31 -47 -62 0
-6 -31 -51 -62 0
-6 -40 -47 -51 0
-6 -40 -47 -62 0
-6 -40 -51 -62 0
-6 -47 -51 -62 0
-12 -17 -24 -31 0
-12 -17 -24 -40 0
-12 -17 -24 -47 0
-12 -17 -24 -51 0
-12 -17 -24 -62 0
-12 -17 -31 -40 0
-12 -17 -31 -47 0
-12 -17 -31 -51 0
-12 -17 -31 -62 0
-12 -17 -40 -47 0
-12 -17 -40 -51 0
-12 -17 -40 -62 0
-12 -17 -47 -51 0
-12 -17 -47 -62 0
-12 -17 -51 -62 0
-12 -24 -31 -40 0
-12 -24 -31 -47 0
-12 -24 -31 -51 0
-12 -24 -31 -62 0
-12 -24 -40 -47 0
-12 -24 -40 -51 0
-12 -24 -40 -62 0
-12 -24 -47 -51 0
-12 -24 -47 -62 0
-12 -24 -51 -62 0
-12 -31 -40 -47 0
-12 -31 -40 -51 0
-12 -31 -40 -62 0
-12 -31 -47 -51 0
-12 -31 -47 -62 0
-12 -31 -51 -62 0
-12 -40 -47 -51 0
-12 -40 -47 -62 0
-12 -40 -51 -62 0
-12 -47 -51 -62 0
-17 -24 -31 -40 0
-17 -24 -31 -47 0
-17 -24 -31 -51 0
-17 -24 -31 -62 0
-17 -24 -40 -47 0
-17 -24 -40 -51 0
-17 -24 -40 -62 0
-17 -24 -47 -51 0
-17 -24 -47 -62 0
-17 -24 -51 -62 0
-17 -31 -40 -47 0
-17 -31 -40 -51 0
-17 -31 -40 -62 0
-17 -31 -47 -51 0
-17 -31 -47 -62 0
-17 -31 -51 -62 0
-17 -40 -47 -51 0
-17 -40 -47 -62 0
-17 -40 -51 -62 0
-17 -47 -51 -62 0
-24 -31 -40 -47 0
-24 -31 -40 -51 0
-24 -31 -40 -62 0
-24 -31 -47 -51 0
-24 -31 -47 -62 0
-24 -31 -51 -62 0
-24 -40 -47 -51 0
-24 -40 -47 -62 0
-24 -40 -51 -62 0
-24 -47 -51 -62 0
-31 -40 -47 -51 0
-31 -40 -47 -62 0
-31 -40 -51 -62 0
-31 -47 -51 -62 0
-40 -47 -51 -62 0
-3 -13 -20 -28 0
-3 -13 -20 -33 0
-3 -13 -20 -41 0
-3 -13 -20 -46 0
-3 -13 -20 -51 0
-3 -13 -20 -58 0
-3 -13 -28 -33 0
-3 -13 -28 -41 0
-3 -13 -28 -46 0
-3 -13 -28 -51 0
-3 -13 -28 -58 0
-3 -13 -33 -41 0
-3 -13 -33 -46 0
-3 -13 -33 -51 0
-3 -13 -33 -58 0
-3 -13 -41 -46 0
-3 -13 -41 -51 0
-3 -13 -41 -58 0
-3 -13 -46 -51 0
-3 -13 -46 -58 0
-3 -13 -51 -58 0
-3 -20 -28 -33 0
-3 -20 -28 -41 0
-3 -20 -28 -46 0
-3 -20 -28 -51 0
-3 -20 -28 -58 0
-3 -20 -33 -41 0
-3 -20 -33 -46 0
-3 -20 -33 -51 0
-3 -20 -33 -58 0
-3 -20 -41 -46 0
-3 -20 -41 -51 0
-3 -20 -41 -58 0
-3 -20 -46 -51 0
-3 -20 -46 -58 0
-3 -20 -51 -58 0
-3 -28 -33 -41 0
-3 -28 -33 -46 0
-3 -28 -33 -51 0
-3 -28 -33 -58 0
-3 -28 -41 -46 0
-3 -28 -41 -51 0
-3 -28 -41 -58 0
-3 -28 -46 -51 0
-3 -28 -46 -58 0
-3 -28 -51 -58 0
-3 -33 -41 -46 0
-3 -33 -41 -51 0
-3 -33 -41 -58 0
-3 -33 -46 -51 0
-3 -33 -46 -58 0
-3 -33 -51 -58 0
-3 -41 -46 -51 0
-3 -41 -46 -58 0
-3 -41 -51 -58 0
-3 -46 -51 -58 0
-13 -20 -28 -33 0
-13 -20 -28 -41 0
-13 -20 -28 -46 0
-13 -20 -28 -51 0
-13 -20 -28 -58 0
-13 -20 -33 -41 0
-13 -20 -33 -46 0
-13 -20 -33 -51 0
-13 -20 -33 -58 0
-13 -20 -41 -46 0
-13 -20 -41 -51 0
-13 -20 -41 -58 0
-13 -20 -46 -51 0
-13 -20 -46 -58 0
-13 -20 -51 -58 0
-13 -28 -33 -41 0
-13 -28 -33 -46 0
-13 -28 -33 -51 0
-13 -28 -33 -58 0
-13 -28 -41 -46 0
-13 -28 -41 -51 0
-13 -28 -41 -58 0
-13 -28 -46 -51 0
-13 -28 -46 -58 0
-13 -28 -51 -58 0
-13 -33 -41 -46 0
-13 -33 -41 -51 0
-13 -33 -41 -58 0
-13 -33 -46 -51 0
-13 -33 -46 -58 0
-13 -33 -51 -58 0
-13 -41 -46 -51 0
-13 -41 -46 -58 0
-13 -41 -51 -58 0
-13 -46 -51 -58 0
-20 -28 -33 -41 0
-20 -28 -33 -46 0
-20 -28 -33 -51 0
-20 -28 -33 -58 0
-20 -28 -41 -46 0
-20 -28 -41 -51 0
-20 -28 -41 -58 0
-20 -28 -46 -51 0
-20 -28 -46 -58 0
-20 -28 -51 -58 0
-20 -33 -41 -46 0
-20 -33 -41 -51 0
-20 -33 -41 -58 0
-20 -33 -46 -51 0
-20 -33 -46 -58 0
-20 -33 -51 -58 0
-20 -41 -46 -51 0
-20 -41 -46 -58 0
-20 -41 -51 -58 0
-20 -46 -51 -58 0
-28 -33 -41 -46 0
-28 -33 -41 -51 0
-28 -33 -41 -58 0
-28 -33 -46 -51 0
-28 -33 -46 -58 0
-28 -33 -51 -58 0
-28 -41 -46 -51 0
-28 -41 -46 -58 0
-28 -41 -51 -58 0
-28 -46 -51 -58 0
-33 -41 -46 -51 0
-33 -41 -46 -58 0
-33 -41 -51 -58 0
-33 -46 -51 -58 0
-41 -46 -51 -58 0
-7 -13 -15 -27 0
-7 -13 -15 -32 0
-7 -13 -15 -37 0
-7 -13 -15 -48 0
-7 -13 -15 -54 0
-7 -13 -15 -61 0
-7 -13 -27 -32 0
-7 -13 -27 -37 0
-7 -13 -27 -48 0
-7 -13 -27 -54 0
-7 -13 -27 -61 0
-7 -13 -32 -37 0
-7 -13 -32 -48 0
-7 -13 -32 -54 0
-7 -13 -32 -61 0
-7 -13 -37 -48 0
-7 -13 -37 -54 0
-7 -13 -37 -61 0
-7 -13 -48 -54 0
-7 -13 -48 -61 0
-7 -13 -54 -61 0
-7 -15 -27 -32 0
-7 -15 -27 -37 0
-7 -15 -27 -48 0
-7 -15 -27 -54 0
-7 -15 -27 -61 0
-7 -15 -32 -37 0
-7 -15 -32 -48 0
-7 -15 -32 -54 0
-7 -15 -32 -61 0
-7 -15 -37 -48 0
-7 -15 -37 -54 0
-7 -15 -37 -61 0
-7 -15 -48 -54 0
-7 -15 -48 -61 0
-7 -15 -54 -61 0
-7 -27 -32 -37 0
-7 -27 -32 -48 0
-7 -27 -32 -54 0
-7 -27 -32 -61 0
-7 -27 -37 -48 0
-7 -27 -37 -54 0
-7 -27 -37 -61 0
-7 -27 -48 -54 0
-7 -27 -48 -61 0
-7 -27 -54 -61 0
-7 -32 -37 -48 0
-7 -32 -37 -54 0
-7 -32 -37 -61 0
-7 -32 -48 -54 0
-7 -32 -48 -61 0
-7 -32 -54 -61 0
-7 -37 -48 -54 0
-7 -37 -48 -61 0
-7 -37 -54 -61 0
-7 -48 -54 -61 0
-13 -15 -27 -32 0
-13 -15 -27 -37 0
-13 -15 -27 -48 0
-13 -15 -27 -54 0
-13 -15 -27 -61 0
-13 -15 -32 -37 0
-13 -15 -32 -48 0
-13 -15 -32 -54 0
-13 -15 -32 -61 0
-13 -15 -37 -48 0
-13 -15 -37 -54 0
-13 -15 -37 -61 0
-13 -15 -48 -54 0
-13 -15 -48 -61 0
-13 -15 -54 -61 0
-13 -27 -32 -37 0
-13 -27 -32 -48 0
-13 -27 -32 -54 0
-13 -27 -32 -61 0
-13 -27 -37 -48 0
-13 -27 -37 -54 0
-13 -27 -37 -61 0
-13 -27 -48 -54 0
-13 -27 -48 -61 0
-13 -27 -54 -61 0
-13 -32 -37 -48 0
-13 -32 -37 -54 0
-13 -32 -37 -61 0
-13 -32 -48 -54 0
-13 -32 -48 -61 0
-13 -32 -54 -61 0
-13 -37 -48 -54 0
-13 -37 -48 -61 0
-13 -37 -54 -61 0
-13 -48 -54 -61 0
-15 -27 -32 -37 0
-15 -27 -32 -48 0
-15 -27 -32 -54 0
-15 -27 -32 -61 0
-15 -27 -37 -48 0
-15 -27 -37 -54 0
-15 -27 -37 -61 0
-15 -27 -48 -54 0
-15 -27 -48 -61 0
-15 -27 -54 -61 0
-15 -32 -37 -48 0
-15 -32 -37 -54 0
-15 -32 -37 -61 0
-15 -32 -48 -54 0
-15 -32 -48 -61 0
-15 -32 -54 -61 0
-15 -37 -48 -54 0
-15 -37 -48 -61 0
-15 -37 -54 -61 0
-15 -48 -54 -61 0
-27 -32 -37 -48 0
-27 -32 -37 -54 0
-27 -32 -37 -61 0
-27 -32 -48 -54 0
-27 -32 -48 -61 0
-27 -32 -54 -61 0
-27 -37 -48 -54 0
-27 -37 -48 -61 0
-27 -37 -54 -61 0
-27 -48 -54 -61 0
-32 -37 -48 -54 0
-32 -37 -48 -61 0
-32 -37 -54 -61 0
-32 -48 -54 -61 0
-37 -48 -54 -61 0
-4 -14 -17 -26 0
-4 -14 -17 -33 0
-4 -14 -17 -38 0
-4 -14 -17 -45 0
-4 -14 -17 -51 0
-4 -14 -17 -60 0
-4 -14 -26 -33 0
-4 -14 -26 -38 0
-4 -14 -26 -45 0
-4 -14 -26 -51 0
-4 -14 -26 -60 0
-4 -14 -33 -38 0
-4 -14 -33 -45 0
-4 -14 -33 -51 0
-4 -14 -33 -60 0
-4 -14 -38 -45 0
-4 -14 -38 -51 0
-4 -14 -38 -60 0
-4 -14 -45 -51 0
-4 -14 -45 -60 0
-4 -14 -51 -60 0
-4 -17 -26 -33 0
-4 -17 -26 -38 0
-4 -17 -26 -45 0
-4 -17 -26 -51 0
-4 -17 -26 -60 0
-4 -17 -33 -38 0
-4 -17 -33 -45 0
-4 -17 -33 -51 0
-4 -17 -33 -60 0
-4 -17 -38 -45 0
-4 -17 -38 -51 0
-4 -17 -38 -60 0
-4 -17 -45 -51 0
-4 -17 -45 -60 0
-4 -17 -51 -60 0
-4 -26 -33 -38 0
-4 -26 -33 -45 0
-4 -26 -33 -51 0
-4 -26 -33 -60 0
-4 -26 -38 -45 0
-4 -26 -38 -51 0
-4 -26 -38 -60 0
-4 -26 -45 -51 0
-4 -26 -45 -60 0
-4 -26 -51 -60 0
-4 -33 -38 -45 0
-4 -33 -38 -51 0
-4 -33 -38 -60 0
-4 -33 -45 -51 0
-4 -33 -45 -60 0
-4 -33 -51 -60 0
-4 -38 -45 -51 0
-4 -38 -45 -60 0
-4 -38 -51 -60 0
-4 -45 -51 -60 0
-14 -17 -26 -33 0
-14 -17 -26 -38 0
-14 -17 -26 -45 0
-14 -17 -26 -51 0
-14 -17 -26 -60 0
-14 -17 -33 -38 0
-14 -17 -33 -45 0
-14 -17 -33 -51 0
-14 -17 -33 -60 0
-14 -17 -38 -45 0
-14 -17 -38 -51 0
-14 -17 -38 -60 0
-14 -17 -45 -51 0
-14 -17 -45 -60 0
-14 -17 -51 -60 0
-14 -26 -33 -38 0
-14 -26 -33 -45 0
-14 -26 -33 -51 0
-14 -26 -33 -60 0
-14 -26 -38 -45 0
-14 -26 -38 -51 0
-14 -26 -38 -60 0
-14 -26 -45 -51 0
-14 -26 -45 -60 0
-14 -26 -51 -60 0
-14 -33 -38 -45 0
-14 -33 -38 -51 0
-14 -33 -38 -60 0
-14 -33 -45 -51 0
-14 -33 -45 -60 0
-14 -33 -51 -60 0
-14 -38 -45 -51 0
-14 -38 -45 -60 0
-14 -38 -51 -60 0
-14 -45 -51 -60 0
-17 -26 -33 -38 0
-17 -26 -33 -45 0
-17 -26 -33 -51 0
-17 -26 -33 -60 0
-17 -26 -38 -45 0
-17 -26 -38 -51 0
-17 -26 -38 -60 0
-17 -26 -45 -51 0
-17 -26 -45 -60 0
-17 -26 -51 -60 0
-17 -33 -38 -45 0
-17 -33 -38 -51 0
-17 -33 -38 -60 0
-17 -33 -45 -51 0
-17 -33 -45 -60 0
-17 -33 -51 -60 0
-17 -38 -45 -51 0
-17 -38 -45 -60 0
-17 -38 -51 -60 0
-17 -45 -51 -60 0
-26 -33 -38 -45 0
-26 -33 -38 -51 0
-26 -33 -38 -60 0
-26 -33 -45 -51 0
-26 -33 -45 -60 0
-26 -33 -51 -60 0
-26 -38 -45 -51 0
-26 -38 -45 -60 0
-26 -38 -51 -60 0
-26 -45 -51 -60 0
-33 -38 -45 -51 0
-33 -38 -45 -60 0
-33 -38 -51 -60 0
-33 -45 -51 -60 0
-38 -45 -51 -60 0
-7 -13 -17 -27 0
-7 -13 -17 -35 0
-7 -13 -17 -42 0
-7 -13 -17 -43 0
-7 -13 -17 -50 0
-7 -13 -17 -62 0
-7 -13 -27 -35 0
-7 -13 -27 -42 0
-7 -13 -27 -43 0
-7 -13 -27 -50 0
-7 -13 -27 -62 0
-7 -13 -35 -42 0
-7 -13 -35 -43 0
-7 -13 -35 -50 0
-7 -13 -35 -62 0
-7 -13 -42 -43 0
-7 -13 -42 -50 0
-7 -13 -42 -62 0
-7 -13 -43 -50 0
-7 -13 -43 -62 0
-7 -13 -50 -62 0
-7 -17 -27 -35 0
-7 -17 -27 -42 0
-7 -17 -27 -43 0
-7 -17 -27 -50 0
-7 -17 -27 -62 0
-7 -17 -35 -42 0
-7 -17 -35 -43 0
-7 -17 -35 -50 0
-7 -17 -35 -62 0
-7 -17 -42 -43 0
-7 -17 -42 -50 0
-7 -17 -42 -62 0
-7 -17 -43 -50 0
-7 -17 -43 -62 0
-7 -17 -50 -62 0
-7 -27 -35 -42 0
-7 -27 -35 -43 0
-7 -27 -35 -50 0
-7 -27 -35 -62 0
-7 -27 -42 -43 0
-7 -27 -42 -50 0
-7 -27 -42 -62 0
-7 -27 -43 -50 0
-7 -27 -43 -62 0
-7 -27 -50 -62 0
-7 -35 -42 -43 0
-7 -35 -42 -50 0
-7 -35 -42 -62 0
-7 -35 -43 -50 0
-7 -35 -43 -62 0
-7 -35 -50 -62 0
-7 -42 -43 -50 0
-7 -42 -43 -62 0
-7 -42 -50 -62 0
-7 -43 -50 -62 0
-13 -17 -27 -35 0
-13 -17 -27 -42 0
-13 -17 -27 -43 0
-13 -17 -27 -50 0
-13 -17 -27 -62 0
-13 -17 -35 -42 0
-13 -17 -35 -43 0
-13 -17 -35 -50 0
-13 -17 -35 -62 0
-13 -17 -42 -43 0
-13 -17 -42 -50 0
-13 -17 -42 -62 0
-13 -17 -43 -50 0
-13 -17 -43 -62 0
-13 -17 -50 -62 0
-13 -27 -35 -42 0
-13 -27 -35 -43 0
-13 -27 -35 -50 0
-13 -27 -35 -62 0
-13 -27 -42 -43 0
-13 -27 -42 -50 0
-13 -27 -42 -62 0
-13 -27 -43 -50 0
-13 -27 -43 -62 0
-13 -27 -50 -62 0
-13 -35 -42 -43 0
-13 -35 -42 -50 0
-13 -35 -42 -62 0
-13 -35 -43 -50 0
-13 -35 -43 -62 0
-13 -35 -50 -62 0
-13 -42 -43 -50 0
-13 -42 -43 -62 0
-13 -42 -50 -62 0
-13 -43 -50 -62 0
-17 -27 -35 -42 0
-17 -27 -35 -43 0
-17 -27 -35 -50 0
-17 -27 -35 -62 0
-17 -27 -42 -43 0
-17 -27 -42 -50 0
-17 -27 -42 -62 0
-17 -27 -43 -50 0
-17 -27 -43 -62 0
-17 -27 -50 -62 0
-17 -35 -42 -43 0
-17 -35 -42 -50 0
-17 -35 -42 -62 0
-17 -35 -43 -50 0
-17 -35 -43 -62 0
-17 -35 -50 -62 0
-17 -42 -43 -50 0
-17 -42 -43 -62 0
-17 -42 -50 -62 0
-17 -43 -50 -62 0
-27 -35 -42 -43 0
-27 -35 -42 -50 0
-27 -35 -42 -62 0
-27 -35 -43 -50 0
-27 -35 -43 -62 0
-27 -35 -50 -62 0
-27 -42 -43 -50 0
-27 -42 -43 -62 0
-27 -42 -50 -62 0
-27 -43 -50 -62 0
-35 -42 -43 -50 0
-35 -42 -43 -62 0
-35 -42 -50 -62 0
-35 -43 -50 -62 0
-42 -43 -50 -62 0
-7 -13 -21 -25 0
-7 -13 -21 -33 0
-7 -13 -21 -40 0
-7 -13 -21 -48 0
-7 -13 -21 -55 0
-7 -13 -21 -57 0
-7 -13 -25 -33 0
-7 -13 -25 -40 0
-7 -13 -25 -48 0
-7 -13 -25 -55 0
-7 -13 -25 -57 0
-7 -13 -33 -40 0
-7 -13 -33 -48 0
-7 -13 -33 -55 0
-7 -13 -33 -57 0
-7 -13 -40 -48 0
-7 -13 -40 -55 0
-7 -13 -40 -57 0
-7 -13 -48 -55 0
-7 -13 -48 -57 0
-7 -13 -55 -57 0
-7 -21 -25 -33 0
-7 -21 -25 -40 0
-7 -21 -25 -48 0
-7 -21 -25 -55 0
-7 -21 -25 -57 0
-7 -21 -33 -40 0
-7 -21 -33 -48 0
-7 -21 -33 -55 0
-7 -21 -33 -57 0
-7 -21 -40 -48 0
-7 -21 -40 -55 0
-7 -21 -40 -57 0
-7 -21 -48 -55 0
-7 -21 -48 -57 0
-7 -21 -55 -57 0
-7 -25 -33 -40 0
-7 -25 -33 -48 0
-7 -25 -33 -55 0
-7 -25 -33 -57 0
-7 -25 -40 -48 0
-7 -25 -40 -55 0
-7 -25 -40 -57 0
-7 -25 -48 -55 0
-7 -25 -48 -57 0
-7 -25 -55 -57 0
-7 -33 -40 -48 0
-7 -33 -40 -55 0
-7 -33 -40 -57 0
-7 -33 -48 -55 0
-7 -33 -48 -57 0
-7 -33 -55 -57 0
-7 -40 -48 -55 0
-7 -40 -48 -57 0
-7 -40 -55 -57 0
-7 -48 -55 -57 0
-13 -21 -25 -33 0
-13 -21 -25 -40 0
-13 -21 -25 -48 0
-13 -21 -25 -55 0
-13 -21 -25 -57 0
-13 -21 -33 -40 0
-13 -21 -33 -48 0
-13 -21 -33 -55 0
-13 -21 -33 -57 0
-13 -21 -40 -48 0
-13 -21 -40 -55 0
-13 -21 -40 -57 0
-13 -21 -48 -55 0
-13 -21 -48 -57 0
-13 -21 -55 -57 0
-13 -25 -33 -40 0
-13 -25 -33 -48 0
-13 -25 -33 -55 0
-13 -25 -33 -57 0
-13 -25 -40 -48 0
-13 -25 -40 -55 0
-13 -25 -40 -57 0
-13 -25 -48 -55 0
-13 -25 -48 -57 0
-13 -25 -55 -57 0
-13 -33 -40 -48 0
-13 -33 -40 -55 0
-13 -33 -40 -57 0
-13 -33 -48 -55 0
-13 -33 -48 -57 0
-13 -33 -55 -57 0
-13 -40 -48 -55 0
-13 -40 -48 -57 0
-13 -40 -55 -57 0
-13 -48 -55 -57 0
-21 -25 -33 -40 0
-21 -25 -33 -48 0
-21 -25 -33 -55 0
-21 -25 -33 -57 0
-21 -25 -40 -48 0
-21 -25 -40 -55 0
-21 -25 -40 -57 0
-21 -25 -48 -55 0
-21 -25 -48 -57 0
-21 -25 -55 -57 0
-21 -33 -40 -48 0
-21 -33 -40 -55 0
-21 -33 -40 -57 0
-21 -33 -48 -55 0
-21 -33 -48 -57 0
-21 -33 -55 -57 0
-21 -40 -48 -55 0
-21 -40 -48 -57 0
-21 -40 -55 -57 0
-21 -48 -55 -57 0
-25 -33 -40 -48 0
-25 -33 -40 -55 0
-25 -33 -40 -57 0
-25 -33 -48 -55 0
-25 -33 -48 -57 0
-25 -33 -55 -57 0
-25 -40 -48 -55 0
-25 -40 -48 -57 0
-25 -40 -55 -57 0
-25 -48 -55 -57 0
-33 -40 -48 -55 0
-33 -40 -48 -57 0
-33 -40 -55 -57 0
-33 -48 -55 -57 0
-40 -48 -55 -57 0
-6 -9 -19 -22 0
-6 -9 -19 -31 0
-6 -9 -19 -39 0
-6 -9 -19 -46 0
-6 -9 -19 -52 0
-6 -9 -19 -59 0
-6 -9 -22 -31 0
-6 -9 -22 -39 0
-6 -9 -22 -46 0
-6 -9 -22 -52 0
-6 -9 -22 -59 0
-6 -9 -31 -39 0
-6 -9 -31 -46 0
-6 -9 -31 -52 0
-6 -9 -31 -59 0
-6 -9 -39 -46 0
-6 -9 -39 -52 0
-6 -9 -39 -59 0
-6 -9 -46 -52 0
-6 -9 -46 -59 0
-6 -9 -52 -59 0
-6 -19 -22 -31 0
-6 -19 -22 -39 0
-6 -19 -22 -46 0
-6 -19 -22 -52 0
-6 -19 -22 -59 0
-6 -19 -31 -39 0
-6 -19 -31 -46 0
-6 -19 -31 -52 0
-6 -19 -31 -59 0
-6 -19 -39 -46 0
-6 -19 -39 -52 0
-6 -19 -39 -59 0
-6 -19 -46 -52 0
-6 -19 -46 -59 0
-6 -19 -52 -59 0
-6 -22 -31 -39 0
-6 -22 -31 -46 0
-6 -22 -31 -52 0
-6 -22 -31 -59 0
-6 -22 -39 -46 0
-6 -22 -39 -52 0
-6 -22 -39 -59 0
-6 -22 -46 -52 0
-6 -22 -46 -59 0
-6 -22 -52 -59 0
-6 -31 -39 -46 0
-6 -31 -39 -52 0
-6 -31 -39 -59 0
-6 -31 -46 -52 0
-6 -31 -46 -59 0
-6 -31 -52 -59 0
-6 -39 -46 -52 0
-6 -39 -46 -59 0
-6 -39 -52 -59 0
-6 -46 -52 -59 0
-9 -19 -22 -31 0
-9 -19 -22 -39 0
-9 -19 -22 -46 0
-9 -19 -22 -52 0
-9 -19 -22 -59 0
-9 -19 -31 -39 0
-9 -19 -31 -46 0
-9 -19 -31 -52 0
-9 -19 -31 -59 0
-9 -19 -39 -46 0
-9 -19 -39 -52 0
-9 -19 -39 -59 0
-9 -19 -46 -52 0
-9 -19 -46 -59 0
-9 -19 -52 -59 0
-9 -22 -31 -39 0
-9 -22 -31 -46 0
-9 -22 -31 -52 0
-9 -22 -31 -59 0
-9 -22 -39 -46 0
-9 -22 -39 -52 0
-9 -22 -39 -59 0
-9 -22 -46 -52 0
-9 -22 -46 -59 0
-9 -22 -52 -59 0
-9 -31 -39 -46 0
-9 -31 -39 -52 0
-9 -31 -39 -59 0
-9 -31 -46 -52 0
-9 -31 -46 -59 0
-9 -31 -52 -59 0
-9 -39 -46 -52 0
-9 -39 -46 -59 0
-9 -39 -52 -59 0
-9 -46 -52 -59 0
-19 -22 -31 -39 0
-19 -22 -31 -46 0
-19 -22 -31 -52 0
-19 -22 -31 -59 0
-19 -22 -39 -46 0
-19 -22 -39 -52 0
-19 -22 -39 -59 0
-19 -22 -46 -52 0
-19 -22 -46 -59 0
-19 -22 -52 -59 0
-19 -31 -39 -46 0
-19 -31 -39 -52 0
-19 -31 -39 -59 0
-19 -31 -46 -52 0
-19 -31 -46 -59 0
-19 -31 -52 -59 0
-19 -39 -46 -52 0
-19 -39 -46 -59 0
-19 -39 -52 -59 0
-19 -46 -52 -59 0
-22 -31 -39 -46 0
-22 -31 -39 -52 0
-22 -31 -39 -59 0
-22 -31 -46 -52 0
-22 -31 -46 -59 0
-22 -31 -52 -59 0
-22 -39 -46 -52 0
-22 -39 -46 -59 0
-22 -39 -52 -59 0
-22 -46 -52 -59 0
-31 -39 -46 -52 0
-31 -39 -46 -59 0
-31 -39 -52 -59 0
-31 -46 -52 -59 0
-39 -46 -52 -59 0
-2 -8 -20 -23 0
-2 -8 -20 -31 0
-2 -8 -20 -42 0
-2 -8 -20 -43 0
-2 -8 -20 -55 0
-2 -8 -20 -61 0
-2 -8 -23 -31 0
-2 -8 -23 -42 0
-2 -8 -23 -43 0
-2 -8 -23 -55 0
-2 -8 -23 -61 0
-2 -8 -31 -42 0
-2 -8 -31 -43 0
-2 -8 -31 -55 0
-2 -8 -31 -61 0
-2 -8 -42 -43 0
-2 -8 -42 -55 0
-2 -8 -42 -61 0
-2 -8 -43 -55 0
-2 -8 -43 -61 0
-2 -8 -55 -61 0
-2 -20 -23 -31 0
-2 -20 -23 -42 0
-2 -20 -23 -43 0
-2 -20 -23 -55 0
-2 -20 -23 -61 0
-2 -20 -31 -42 0
-2 -20 -31 -43 0
-2 -20 -31 -55 0
-2 -20 -31 -61 0
-2 -20 -42 -43 0
-2 -20 -42 -55 0
-2 -20 -42 -61 0
-2 -20 -43 -55 0
-2 -20 -43 -61 0
-2 -20 -55 -61 0
-2 -23 -31 -42 0
-2 -23 -31 -43 0
-2 -23 -31 -55 0
-2 -23 -31 -61 0
-2 -23 -42 -43 0
-2 -23 -42 -55 0
-2 -23 -42 -61 0
-2 -23 -43 -55 0
-2 -23 -43 -61 0
-2 -23 -55 -61 0
-2 -31 -42 -43 0
-2 -31 -42 -55 0
-2 -31 -42 -61 0
-2 -31 -43 -55 0
-2 -31 -43 -61 0
-2 -31 -55 -61 0
-2 -42 -43 -55 0
-2 -42 -43 -61 0
-2 -42 -55 -61 0
-2 -43 -55 -61 0
-8 -20 -23 -31 0
-8 -20 -23 -42 0
-8 -20 -23 -43 0
-8 -20 -23 -55 0
-8 -20 -23 -61 0
-8 -20 -31 -42 0
-8 -20 -31 -43 0
-8 -20 -31 -55 0
-8 -20 -31 -61 0
-8 -20 -42 -43 0
-8 -20 -42 -55 0
-8 -20 -42 -61 0
-8 -20 -43 -55 0
-8 -20 -43 -61 0
-8 -20 -55 -61 0
-8 -23 -31 -42 0
-8 -23 -31 -43 0
-8 -23 -31 -55 0
-8 -23 -31 -61 0
-8 -23 -42 -43 0
-8 -23 -42 -55 0
-8 -23 -42 -61 0
-8 -23 -43 -55 0
-8 -23 -43 -61 0
-8 -23 -55 -61 0
-8 -31 -42 -43 0
-8 -31 -42 -55 0
-8 -31 -42 -61 0
-8 -31 -43 -55 0
-8 -31 -43 -61 0
-8 -31 -55 -61 0
-8 -42 -43 -55 0
-8 -42 -43 -61 0
-8 -42 -55 -61 0
-8 -43 -55 -61 0
-20 -23 -31 -42 0
-20 -23 -31 -43 0
-20 -23 -31 -55 0
-20 -23 -31 -61 0
-20 -23 -42 -43 0
-20 -23 -42 -55 0
-20 -23 -42 -61 0
-20 -23 -43 -55 0
-20 -23 -43 -61 0
-20 -23 -55 -61 0
-20 -31 -42 -43 0
-20 -31 -42 -55 0
-20 -31 -42 -61 0
-20 -31 -43 -55 0
-20 -31 -43 -61 0
-20 -31 -55 -61 0
-20 -42 -43 -55 0
-20 -42 -43 -61 0
-20 -42 -55 -61 0
-20 -43 -55 -61 0
-23 -31 -42 -43 0
-23 -31 -42 -55 0
-23 -31 -42 -61 0
-23 -31 -43 -55 0
-23 -31 -43 -61 0
-23 -31 -55 -61 0
-23 -42 -43 -55 0
-23 -42 -43 -61 0
-23 -42 -55 -61 0
-23 -43 -55 -61 0
-31 -42 -43 -55 0
-31 -42 -43 -61 0
-31 -42 -55 -61 0
-31 -43 -55 -61 0
-42 -43 -55 -61 0
-4 -9 -16 -24 0
-4 -9 -16 -31 0
-4 -9 -16 -38 0
-4 -9 -16 -43 0
-4 -9 -16 -54 0
-4 -9 -16 -57 0
-4 -9 -24 -31 0
-4 -9 -24 -38 0
-4 -9 -24 -43 0
-4 -9 -24 -54 0
-4 -9 -24 -57 0
-4 -9 -31 -38 0
-4 -9 -31 -43 0
-4 -9 -31 -54 0
-4 -9 -31 -57 0
-4 -9 -38 -43 0
-4 -9 -38 -54 0
-4 -9 -38 -57 0
-4 -9 -43 -54 0
-4 -9 -43 -57 0
-4 -9 -54 -57 0
-4 -16 -24 -31 0
-4 -16 -24 -38 0
-4 -16 -24 -43 0
-4 -16 -24 -54 0
-4 -16 -24 -57 0
-4 -16 -31 -38 0
-4 -16 -31 -43 0
-4 -16 -31 -54 0
-4 -16 -31 -57 0
-4 -16 -38 -43 0
-4 -16 -38 -54 0
-4 -16 -38 -57 0
-4 -16 -43 -54 0
-4 -16 -43 -57 0
-4 -16 -54 -57 0
-4 -24 -31 -38 0
-4 -24 -31 -43 0
-4 -24 -31 -54 0
-4 -24 -31 -57 0
-4 -24 -38 -43 0
-4 -24 -38 -54 0
-4 -24 -38 -57 0
-4 -24 -43 -54 0
-4 -24 -43 -57 0
-4 -24 -54 -57 0
-4 -31 -38 -43 0
-4 -31 -38 -54 0
-4 -31 -38 -57 0
-4 -31 -43 -54 0
-4 -31 -43 -57 0
-4 -31 -54 -57 0
-4 -38 -43 -54 0
-4 -38 -43 -57 0
-4 -38 -54 -57 0
-4 -43 -54 -57 0
-9 -16 -24 -31 0
-9 -16 -24 -38 0
-9 -16 -24 -43 0
-9 -16 -24 -54 0
-9 -16 -24 -57 0
-9 -16 -31 -38 0
-9 -16 -31 -43 0
-9 -16 -31 -54 0
-9 -16 -31 -57 0
-9 -16 -38 -43 0
-9 -16 -38 -54 0
-9 -16 -38 -57 0
-9 -16 -43 -54 0
-9 -16 -43 -57 0
-9 -16 -54 -57 0
-9 -24 -31 -38 0
-9 -24 -31 -43 0
-9 -24 -31 -54 0
-9 -24 -31 -57 0
-9 -24 -38 -43 0
-9 -24 -38 -54 0
-9 -24 -38 -57 0
-9 -24 -43 -54 0
-9 -24 -43 -57 0
-9 -24 -54 -57 0
-9 -31 -38 -43 0
-9 -31 -38 -54 0
-9 -31 -38 -57 0
-9 -31 -43 -54 0
-9 -31 -43 -57 0
-9 -31 -54 -57 0
-9 -38 -43 -54 0
-9 -38 -43 -57 0
-9 -38 -54 -57 0
-9 -43 -54 -57 0
-16 -24 -31 -38 0
-16 -24 -31 -43 0
-16 -24 -31 -54 0
-16 -24 -31 -57 0
-16 -24 -38 -43 0
-16 -24 -38 -54 0
-16 -24 -38 -57 0
-16 -24 -43 -54 0
-16 -24 -43 -57 0
-16 -24 -54 -57 0
-16 -31 -38 -43 0
-16 -31 -38 -54 0
-16 -31 -38 -57 0
-16 -31 -43 -54 0
-16 -31 -43 -57 0
-16 -31 -54 -57 0
-16 -38 -43 -54 0
-16 -38 -43 -57 0
-16 -38 -54 -57 0
-16 -43 -54 -57 0
-24 -31 -38 -43 0
-24 -31 -38 -54 0
-24 -31 -38 -57 0
-24 -31 -43 -54 0
-24 -31 -43 -57 0
-24 -31 -54 -57 0
-24 -38 -43 -54 0
-24 -38 -43 -57 0
-24 -38 -54 -57 0
-24 -43 -54 -57 0
-31 -38 -43 -54 0
-31 -38 -43 -57 0
-31 -38 -54 -57 0
-31 -43 -54 -57 0
-38 -43 -54 -57 0
-4 -13 -18 -24 0
-4 -13 -18 -29 0
-4 -13 -18 -37 0
-4 -13 -18 -48 0
-4 -13 -18 -56 0
-4 -13 -18 -58 0
-4 -13 -24 -29 0
-4 -13 -24 -37 0
-4 -13 -24 -48 0
-4 -13 -24 -56 0
-4 -13 -24 -58 0
-4 -13 -29 -37 0
-4 -13 -29 -48 0
-4 -13 -29 -56 0
-4 -13 -29 -58 0
-4 -13 -37 -48 0
-4 -13 -37 -56 0
-4 -13 -37 -58 0
-4 -13 -48 -56 0
-4 -13 -48 -58 0
-4 -13 -56 -58 0
-4 -18 -24 -29 0
-4 -18 -24 -37 0
-4 -18 -24 -48 0
-4 -18 -24 -56 0
-4 -18 -24 -58 0
-4 -18 -29 -37 0
-4 -18 -29 -48 0
-4 -18 -29 -56 0
-4 -18 -29 -58 0
-4 -18 -37 -48 0
-4 -18 -37 -56 0
-4 -18 -37 -58 0
-4 -18 -48 -56 0
-4 -18 -48 -58 0
-4 -18 -56 -58 0
-4 -24 -29 -37 0
-4 -24 -29 -48 0
-4 -24 -29 -56 0
-4 -24 -29 -58 0
-4 -24 -37 -48 0
-4 -24 -37 -56 0
-4 -24 -37 -58 0
-4 -24 -48 -56 0
-4 -24 -48 -58 0
-4 -24 -56 -58 0
-4 -29 -37 -48 0
-4 -29 -37 -56 0
-4 -29 -37 -58 0
-4 -29 -48 -56 0
-4 -29 -48 -58 0
-4 -29 -56 -58 0
-4 -37 -48 -56 0
-4 -37 -48 -58 0
-4 -37 -56 -58 0
-4 -48 -56 -58 0
-13 -18 -24 -29 0
-13 -18 -24 -37 0
-13 -18 -24 -48 0
-13 -18 -24 -56 0
-13 -18 -24 -58 0
-13 -18 -29 -37 0
-13 -18 -29 -48 0
-13 -18 -29 -56 0
-13 -18 -29 -58 0
-13 -18 -37 -48 0
-13 -18 -37 -56 0
-13 -18 -37 -58 0
-13 -18 -48 -56 0
-13 -18 -48 -58 0
-13 -18 -56 -58 0
-13 -24 -29 -37 0
-13 -24 -29 -48 0
-13 -24 -29 -56 0
-13 -24 -29 -58 0
-13 -24 -37 -48 0
-13 -24 -37 -56 0
-13 -24 -37 -58 0
-13 -24 -48 -56 0
-13 -24 -48 -58 0
-13 -24 -56 -58 0
-13 -29 -37 -48 0
-13 -29 -37 -56 0
-13 -29 -37 -58 0
-13 -29 -48 -56 0
-13 -29 -48 -58 0
-13 -29 -56 -58 0
-13 -37 -48 -56 0
-13 -37 -48 -58 0
-13 -37 -56 -58 0
-13 -48 -56 -58 0
-18 -24 -29 -37 0
-18 -24 -29 -48 0
-18 -24 -29 -56 0
-18 -24 -29 -58 0
-18 -24 -37 -48 0
-18 -24 -37 -56 0
-18 -24 -37 -58 0
-18 -24 -48 -56 0
-18 -24 -48 -58 0
-18 -24 -56 -58 0
-18 -29 -37 -48 0
-18 -29 -37 -56 0
-18 -29 -37 -58 0
-18 -29 -48 -56 0
-18 -29 -48 -58 0
-18 -29 -56 -58 0
-18 -37 -48 -56 0
-18 -37 -48 -58 0
-18 -37 -56 -58 0
-18 -48 -56 -58 0
-24 -29 -37 -48 0
-24 -29 -37 -56 0
-24 -29 -37 -58 0
-24 -29 -48 -56 0
-24 -29 -48 -58 0
-24 -29 -56 -58 0
-24 -37 -48 -56 0
-24 -37 -48 -58 0
-24 -37 -56 -58 0
-24 -48 -56 -58 0
-29 -37 -48 -56 0
-29 -37 -48 -58 0
-29 -37 -56 -58 0
-29 -48 -56 -58 0
-37 -48 -56 -58 0
-3 -14 -20 -22 0
-3 -14 -20 -34 0
-3 -14 -20 -36 0
-3 -14 -20 -49 0
-3 -14 -20 -54 0
-3 -14 -20 -57 0
-3 -14 -22 -34 0
-3 -14 -22 -36 0
-3 -14 -22 -49 0
-3 -14 -22 -54 0
-3 -14 -22 -57 0
-3 -14 -34 -36 0
-3 -14 -34 -49 0
-3 -14 -34 -54 0
-3 -14 -34 -57 0
-3 -14 -36 -49 0
-3 -14 -36 -54 0
-3 -14 -36 -57 0
-3 -14 -49 -54 0
-3 -14 -49 -57 0
-3 -14 -54 -57 0
-3 -20 -22 -34 0
-3 -20 -22 -36 0
-3 -20 -22 -49 0
-3 -20 -22 -54 0
-3 -20 -22 -57 0
-3 -20 -34 -36 0
-3 -20 -34 -49 0
-3 -20 -34 -54 0
-3 -20 -34 -57 0
-3 -20 -36 -49 0
-3 -20 -36 -54 0
-3 -20 -36 -57 0
-3 -20 -49 -54 0
-3 -20 -49 -57 0
-3 -20 -54 -57 0
-3 -22 -34 -36 0
-3 -22 -34 -49 0
-3 -22 -34 -54 0
-3 -22 -34 -57 0
-3 -22 -36 -49 0
-3 -22 -36 -54 0
-3 -22 -36 -57 0
-3 -22 -49 -54 0
-3 -22 -49 -57 0
-3 -22 -54 -57 0
-3 -34 -36 -49 0
-3 -34 -36 -54 0
-3 -34 -36 -57 0
-3 -34 -49 -54 0
-3 -34 -49 -57 0
-3 -34 -54 -57 0
-3 -36 -49 -54 0
-3 -36 -49 -57 0
-3 -36 -54 -57 0
-3 -49 -54 -57 0
-14 -20 -22 -34 0
-14 -20 -22 -36 0
-14 -20 -22 -49 0
-14 -20 -22 -54 0
-14 -20 -22 -57 0
-14 -20 -34 -36 0
-14 -20 -34 -49 0
-14 -20 -34 -54 0
-14 -20 -34 -57 0
-14 -20 -36 -49 0
-14 -20 -36 -54 0
-14 -20 -36 -57 0
-14 -20 -49 -54 0
-14 -20 -49 -57 0
-14 -20 -54 -57 0
-14 -22 -34 -36 0
-14 -22 -34 -49 0
-14 -22 -34 -54 0
-14 -22 -34 -57 0
-14 -22 -36 -49 0
-14 -22 -36 -54 0
-14 -22 -36 -57 0
-14 -22 -49 -54 0
-14 -22 -49 -57 0
-14 -22 -54 -57 0
-14 -34 -36 -49 0
-14 -34 -36 -54 0
-14 -34 -36 -57 0
-14 -34 -49 -54 0
-14 -34 -49 -57 0
-14 -34 -54 -57 0
-14 -36 -49 -54 0
-14 -36 -49 -57 0
-14 -36 -54 -57 0
-14 -49 -54 -57 0
-20 -22 -34 -36 0
-20 -22 -34 -49 0
-20 -22 -34 -54 0
-20 -22 -34 -57 0
-20 -22 -36 -49 0
-20 -22 -36 -54 0
-20 -22 -36 -57 0
-20 -22 -49 -54 0
-20 -22 -49 -57 0
-20 -22 -54 -57 0
-20 -34 -36 -49 0
-20 -34 -36 -54 0
-20 -34 -36 -57 0
-20 -34 -49 -54 0
-20 -34 -49 -57 0
-20 -34 -54 -57 0
-20 -36 -49 -54 0
-20 -36 -49 -57 0
-20 -36 -54 -57 0
-20 -49 -54 -57 0
-22 -34 -36 -49 0
-22 -34 -36 -54 0
-22 -34 -36 -57 0
-22 -34 -49 -54 0
-22 -34 -49 -57 0
-22 -34 -54 -57 0
-22 -36 -49 -54 0
-22 -36 -49 -57 0
-22 -36 -54 -57 0
-22 -49 -54 -57 0
-34 -36 -49 -54 0
-34 -36 -49 -57 0
-34 -36 -54 -57 0
-34 -49 -54 -57 0
-36 -49 -54 -57 0
-4 -13 -16 -26 0
-4 -13 -16 -30 0
-4 -13 -16 -37 0
-4 -13 -16 -46 0
-4 -13 -16 -53 0
-4 -13 -16 -59 0
-4 -13 -26 -30 0
-4 -13 -26 -37 0
-4 -13 -26 -46 0
-4 -13 -26 -53 0
-4 -13 -26 -59 0
-4 -13 -30 -37 0
-4 -13 -30 -46 0
-4 -13 -30 -53 0
-4 -13 -30 -59 0
-4 -13 -37 -46 0
-4 -13 -37 -53 0
-4 -13 -37 -59 0
-4 -13 -46 -53 0
-4 -13 -46 -59 0
-4 -13 -53 -59 0
-4 -16 -26 -30 0
-4 -16 -26 -37 0
-4 -16 -26 -46 0
-4 -16 -26 -53 0
-4 -16 -26 -59 0
-4 -16 -30 -37 0
-4 -16 -30 -46 0
-4 -16 -30 -53 0
-4 -16 -30 -59 0
-4 -16 -37 -46 0
-4 -16 -37 -53 0
-4 -16 -37 -59 0
-4 -16 -46 -53 0
-4 -16 -46 -59 0
-4 -16 -53 -59 0
-4 -26 -30 -37 0
-4 -26 -30 -46 0
-4 -26 -30 -53 0
-4 -26 -30 -59 0
-4 -26 -37 -46 0
-4 -26 -37 -53 0
-4 -26 -37 -59 0
-4 -26 -46 -53 0
-4 -26 -46 -59 0
-4 -26 -53 -59 0
-4 -30 -37 -46 0
-4 -30 -37 -53 0
-4 -30 -37 -59 0
-4 -30 -46 -53 0
-4 -30 -46 -59 0
-4 -30 -53 -59 0
-4 -37 -46 -53 0
-4 -37 -46 -59 0
-4 -37 -53 -59 0
-4 -46 -53 -59 0
-13 -16 -26 -30 0
-13 -16 -26 -37 0
-13 -16 -26 -46 0
-13 -16 -26 -53 0
-13 -16 -26 -59 0
-13 -16 -30 -37 0
-13 -16 -30 -46 0
-13 -16 -30 -53 0
-13 -16 -30 -59 0
-13 -16 -37 -46 0
-13 -16 -37 -53 0
-13 -16 -37 -59 0
-13 -16 -46 -53 0
-13 -16 -46 -59 0
-13 -16 -53 -59 0
-13 -26 -30 -37 0
-13 -26 -30 -46 0
-13 -26 -30 -53 0
-13 -26 -30 -59 0
-13 -26 -37 -46 0
-13 -26 -37 -53 0
-13 -26 -37 -59 0
-13 -26 -46 -53 0
-13 -26 -46 -59 0
-13 -26 -53 -59 0
-13 -30 -37 -46 0
-13 -30 -37 -53 0
-13 -30 -37 -59 0
-13 -30 -46 -53 0
-13 -30 -46 -59 0
-13 -30 -53 -59 0
-13 -37 -46 -53 0
-13 -37 -46 -59 0
-13 -37 -53 -59 0
-13 -46 -53 -59 0
-16 -26 -30 -37 0
-16 -26 -30 -46 0
-16 -26 -30 -53 0
-16 -26 -30 -59 0
-16 -26 -37 -46 0
-16 -26 -37 -53 0
-16 -26 -37 -59 0
-16 -26 -46 -53 0
-16 -26 -46 -59 0
-16 -26 -53 -59 0
-16 -30 -37 -46 0
-16 -30 -37 -53 0
-16 -30 -37 -59 0
-16 -30 -46 -53 0
-16 -30 -46 -59 0
-16 -30 -53 -59 0
-16 -37 -46 -53 0
-16 -37 -46 -59 0
-16 -37 -53 -59 0
-16 -46 -53 -59 0
-26 -30 -37 -46 0
-26 -30 -37 -53 0
-26 -30 -37 -59 0
-26 -30 -46 -53 0
-26 -30 -46 -59 0
-26 -30 -53 -59 0
-26 -37 -46 -53 0
-26 -37 -46 -59 0
-26 -37 -53 -59 0
-26 -46 -53 -59 0
-30 -37 -46 -53 0
-30 -37 -46 -59 0
-30 -37 -53 -59 0
-30 -46 -53 -59 0
-37 -46 -53 -59 0
-2 -11 -16 -27 0
-2 -11 -16 -32 0
-2 -11 -16 -40 0
-2 -11 -16 -47 0
-2 -11 -16 -54 0
-2 -11 -16 -59 0
-2 -11 -27 -32 0
-2 -11 -27 -40 0
-2 -11 -27 -47 0
-2 -11 -27 -54 0
-2 -11 -27 -59 0
-2 -11 -32 -40 0
-2 -11 -32 -47 0
-2 -11 -32 -54 0
-2 -11 -32 -59 0
-2 -11 -40 -47 0
-2 -11 -40 -54 0
-2 -11 -40 -59 0
-2 -11 -47 -54 0
-2 -11 -47 -59 0
-2 -11 -54 -59 0
-2 -16 -27 -32 0
-2 -16 -27 -40 0
-2 -16 -27 -47 0
-2 -16 -27 -54 0
-2 -16 -27 -59 0
-2 -16 -32 -40 0
-2 -16 -32 -47 0
-2 -16 -32 -54 0
-2 -16 -32 -59 0
-2 -16 -40 -47 0
-2 -16 -40 -54 0
-2 -16 -40 -59 0
-2 -16 -47 -54 0
-2 -16 -47 -59 0
-2 -16 -54 -59 0
-2 -27 -32 -40 0
-2 -27 -32 -47 0
-2 -27 -32 -54 0
-2 -27 -32 -59 0
-2 -27 -40 -47 0
-2 -27 -40 -54 0
-2 -27 -40 -59 0
-2 -27 -47 -54 0
-2 -27 -47 -59 0
-2 -27 -54 -59 0
-2 -32 -40 -47 0
-2 -32 -40 -54 0
-2 -32 -40 -59 0
-2 -32 -47 -54 0
-2 -32 -47 -59 0
-2 -32 -54 -59 0
-2 -40 -47 -54 0
-2 -40 -47 -59 0
-2 -40 -54 -59 0
-2 -47 -54 -59 0
-11 -16 -27 -32 0
-11 -16 -27 -40 0
-11 -16 -27 -47 0
-11 -16 -27 -54 0
-11 -16 -27 -59 0
-11 -16 -32 -40 0
-11 -16 -32 -47 0
-11 -16 -32 -54 0
-11 -16 -32 -59 0
-11 -16 -40 -47 0
-11 -16 -40 -54 0
-11 -16 -40 -59 0
-11 -16 -47 -54 0
-11 -16 -47 -59 0
-11 -16 -54 -59 0
-11 -27 -32 -40 0
-11 -27 -32 -47 0
-11 -27 -32 -54 0
-11 -27 -32 -59 0
-11 -27 -40 -47 0
-11 -27 -40 -54 0
-11 -27 -40 -59 0
-11 -27 -47 -54 0
-11 -27 -47 -59 0
-11 -27 -54 -59 0
-11 -32 -40 -47 0
-11 -32 -40 -54 0
-11 -32 -40 -59 0
-11 -32 -47 -54 0
-11 -32 -47 -59 0
-11 -32 -54 -59 0
-11 -40 -47 -54 0
-11 -40 -47 -59 0
-11 -40 -54 -59 0
-11 -47 -54 -59 0
-16 -27 -32 -40 0
-16 -27 -32 -47 0
-16 -27 -32 -54 0
-16 -27 -32 -59 0
-16 -27 -40 -47 0
-16 -27 -40 -54 0
-16 -27 -40 -59 0
-16 -27 -47 -54 0
-16 -27 -47 -59 0
-16 -27 -54 -59 0
-16 -32 -40 -47 0
-16 -32 -40 -54 0
-16 -32 -40 -59 0
-16 -32 -47 -54 0
-16 -32 -47 -59 0
-16 -32 -54 -59 0
-16 -40 -47 -54 0
-16 -40 -47 -59 0
-16 -40 -54 -59 0
-16 -47 -54 -59 0
-27 -32 -40 -47 0
-27 -32 -40 -54 0
-27 -32 -40 -59 0
-27 -32 -47 -54 0
-27 -32 -47 -59 0
-27 -32 -54 -59 0
-27 -40 -47 -54 0
-27 -40 -47 -59 0
-27 -40 -54 -59 0
-27 -47 -54 -59 0
-32 -40 -47 -54 0
-32 -40 -47 -59 0
-32 -40 -54 -59 0
-32 -47 -54 -59 0
-40 -47 -54 -59 0
-6 -11 -17 -22 0
-6 -11 -17 -29 0
-6 -11 -17 -42 0
-6 -11 -17 -46 0
-6 -11 -17 -52 0
-6 -11 -17 -61 0
-6 -11 -22 -29 0
-6 -11 -22 -42 0
-6 -11 -22 -46 0
-6 -11 -22 -52 0
-6 -11 -22 -61 0
-6 -11 -29 -42 0
-6 -11 -29 -46 0
-6 -11 -29 -52 0
-6 -11 -29 -61 0
-6 -11 -42 -46 0
-6 -11 -42 -52 0
-6 -11 -42 -61 0
-6 -11 -46 -52 0
-6 -11 -46 -61 0
-6 -11 -52 -61 0
-6 -17 -22 -29 0
-6 -17 -22 -42 0
-6 -17 -22 -46 0
-6 -17 -22 -52 0
-6 -17 -22 -61 0
-6 -17 -29 -42 0
-6 -17 -29 -46 0
-6 -17 -29 -52 0
-6 -17 -29 -61 0
-6 -17 -42 -46 0
-6 -17 -42 -52 0
-6 -17 -42 -61 0
-6 -17 -46 -52 0
-6 -17 -46 -61 0
-6 -17 -52 -61 0
-6 -22 -29 -42 0
-6 -22 -29 -46 0
-6 -22 -29 -52 0
-6 -22 -29 -61 0
-6 -22 -42 -46 0
-6 -22 -42 -52 0
-6 -22 -42 -61 0
-6 -22 -46 -52 0
-6 -22 -46 -61 0
-6 -22 -52 -61 0
-6 -29 -42 -46 0
-6 -29 -42 -52 0
-6 -29 -42 -61 0
-6 -29 -46 -52 0
-6 -29 -46 -61 0
-6 -29 -52 -61 0
-6 -42 -46 -52 0
-6 -42 -46 -61 0
-6 -42 -52 -61 0
-6 -46 -52 -61 0
-11 -17 -22 -29 0
-11 -17 -22 -42 0
-11 -17 -22 -46 0
-11 -17 -22 -52 0
-11 -17 -22 -61 0
-11 -17 -29 -42 0
-11 -17 -29 -46 0
-11 -17 -29 -52 0
-11 -17 -29 -61 0
-11 -17 -42 -46 0
-11 -17 -42 -52 0
-11 -17 -42 -61 0
-11 -17 -46 -52 0
-11 -17 -46 -61 0
-11 -17 -52 -61 0
-11 -22 -29 -42 0
-11 -22 -29 -46 0
-11 -22 -29 -52 0
-11 -22 -29 -61 0
-11 -22 -42 -46 0
-11 -22 -42 -52 0
-11 -22 -42 -61 0
-11 -22 -46 -52 0
-11 -22 -46 -61 0
-11 -22 -52 -61 0
-11 -29 -42 -46 0
-11 -29 -42 -52 0
-11 -29 -42 -61 0
-11 -29 -46 -52 0
-11 -29 -46 -61 0
-11 -29 -52 -61 0
-11 -42 -46 -52 0
-11 -42 -46 -61 0
-11 -42 -52 -61 0
-11 -46 -52 -61 0
-17 -22 -29 -42 0
-17 -22 -29 -46 0
-17 -22 -29 -52 0
-17 -22 -29 -61 0
-17 -22 -42 -46 0
-17 -22 -42 -52 0
-17 -22 -42 -61 0
-17 -22 -46 -52 0
-17 -22 -46 -61 0
-17 -22 -52 -61 0
-17 -29 -42 -46 0
-17 -29 -42 -52 0
-17 -29 -42 -61 0
-17 -29 -46 -52 0
-17 -29 -46 -61 0
-17 -29 -52 -61 0
-17 -42 -46 -52 0
-17 -42 -46 -61 0
-17 -42 -52 -61 0
-17 -46 -52 -61 0
-22 -29 -42 -46 0
-22 -29 -42 -52 0
-22 -29 -42 -61 0
-22 -29 -46 -52 0
-22 -29 -46 -61 0
-22 -29 -52 -61 0
-22 -42 -46 -52 0
-22 -42 -46 -61 0
-22 -42 -52 -61 0
-22 -46 -52 -61 0
-29 -42 -46 -52 0
-29 -42 -46 -61 0
-29 -42 -52 -61 0
-29 -46 -52 -61 0
-42 -46 -52 -61 0
-5 -13 -20 -23 0
-5 -13 -20 -33 0
-5 -13 -20 -39 0
-5 -13 -20 -45 0
-5 -13 -20 -52 0
-5 -13 -20 -60 0
-5 -13 -23 -33 0
-5 -13 -23 -39 0
-5 -13 -23 -45 0
-5 -13 -23 -52 0
-5 -13 -23 -60 0
-5 -13 -33 -39 0
-5 -13 -33 -45 0
-5 -13 -33 -52 0
-5 -13 -33 -60 0
-5 -13 -39 -45 0
-5 -13 -39 -52 0
-5 -13 -39 -60 0
-5 -13 -45 -52 0
-5 -13 -45 -60 0
-5 -13 -52 -60 0
-5 -20 -23 -33 0
-5 -20 -23 -39 0
-5 -20 -23 -45 0
-5 -20 -23 -52 0
-5 -20 -23 -60 0
-5 -20 -33 -39 0
-5 -20 -33 -45 0
-5 -20 -33 -52 0
-5 -20 -33 -60 0
-5 -20 -39 -45 0
-5 -20 -39 -52 0
-5 -20 -39 -60 0
-5 -20 -45 -52 0
-5 -20 -45 -60 0
-5 -20 -52 -60 0
-5 -23 -33 -39 0
-5 -23 -33 -45 0
-5 -23 -33 -52 0
-5 -23 -33 -60 0
-5 -23 -39 -45 0
-5 -23 -39 -52 0
-5 -23 -39 -60 0
-5 -23 -45 -52 0
-5 -23 -45 -60 0
-5 -23 -52 -60 0
-5 -33 -39 -45 0
-5 -33 -39 -52 0
-5 -33 -39 -60 0
-5 -33 -45 -52 0
-5 -33 -45 -60 0
-5 -33 -52 -60 0
-5 -39 -45 -52 0
-5 -39 -45 -60 0
-5 -39 -52 -60 0
-5 -45 -52 -60 0
-13 -20 -23 -33 0
-13 -20 -23 -39 0
-13 -20 -23 -45 0
-13 -20 -23 -52 0
-13 -20 -23 -60 0
-13 -20 -33 -39 0
-13 -20 -33 -45 0
-13 -20 -33 -52 0
-13 -20 -33 -60 0
-13 -20 -39 -45 0
-13 -20 -39 -52 0
-13 -20 -39 -60 0
-13 -20 -45 -52 0
-13 -20 -45 -60 0
-13 -20 -52 -60 0
-13 -23 -33 -39 0
-13 -23 -33 -45 0
-13 -23 -33 -52 0
-13 -23 -33 -60 0
-13 -23 -39 -45 0
-13 -23 -39 -52 0
-13 -23 -39 -60 0
-13 -23 -45 -52 0
-13 -23 -45 -60 0
-13 -23 -52 -60 0
-13 -33 -39 -45 0
-13 -33 -39 -52 0
-13 -33 -39 -60 0
-13 -33 -45 -52 0
-13 -33 -45 -60 0
-13 -33 -52 -60 0
-13 -39 -45 -52 0
-13 -39 -45 -60 0
-13 -39 -52 -60 0
-13 -45 -52 -60 0
-20 -23 -33 -39 0
-20 -23 -33 -45 0
-20 -23 -33 -52 0
-20 -23 -33 -60 0
-20 -23 -39 -45 0
-20 -23 -39 -52 0
-20 -23 -39 -60 0
-20 -23 -45 -52 0
-20 -23 -45 -60 0
-20 -23 -52 -60 0
-20 -33 -39 -45 0
-20 -33 -39 -52 0
-20 -33 -39 -60 0
-20 -33 -45 -52 0
-20 -33 -45 -60 0
-20 -33 -52 -60 0
-20 -39 -45 -52 0
-20 -39 -45 -60 0
-20 -39 -52 -60 0
-20 -45 -52 -60 0
-23 -33 -39 -45 0
-23 -33 -39 -52 0
-23 -33 -39 -60 0
-23 -33 -45 -52 0
-23 -33 -45 -60 0
-23 -33 -52 -60 0
-23 -39 -45 -52 0
-23 -39 -45 -60 0
-23 -39 -52 -60 0
-23 -45 -52 -60 0
-33 -39 -45 -52 0
-33 -39 -45 -60 0
-33 -39 -52 -60 0
-33 -45 -52 -60 0
-39 -45 -52 -60 0
-4 -12 -16 -22 0
-4 -12 -16 -31 0
-4 -12 -16 -36 0
-4 -12 -16 -44 0
-4 -12 -16 -55 0
-4 -12 -16 -58 0
-4 -12 -22 -31 0
-4 -12 -22 -36 0
-4 -12 -22 -44 0
-4 -12 -22 -55 0
-4 -12 -22 -58 0
-4 -12 -31 -36 0
-4 -12 -31 -44 0
-4 -12 -31 -55 0
-4 -12 -31 -58 0
-4 -12 -36 -44 0
-4 -12 -36 -55 0
-4 -12 -36 -58 0
-4 -12 -44 -55 0
-4 -12 -44 -58 0
-4 -12 -55 -58 0
-4 -16 -22 -31 0
-4 -16 -22 -36 0
-4 -16 -22 -44 0
-4 -16 -22 -55 0
-4 -16 -22 -58 0
-4 -16 -31 -36 0
-4 -16 -31 -44 0
-4 -16 -31 -55 0
-4 -16 -31 -58 0
-4 -16 -36 -44 0
-4 -16 -36 -55 0
-4 -16 -36 -58 0
-4 -16 -44 -55 0
-4 -16 -44 -58 0
-4 -16 -55 -58 0
-4 -22 -31 -36 0
-4 -22 -31 -44 0
-4 -22 -31 -55 0
-4 -22 -31 -58 0
-4 -22 -36 -44 0
-4 -22 -36 -55 0
-4 -22 -36 -58 0
-4 -22 -44 -55 0
-4 -22 -44 -58 0
-4 -22 -55 -58 0
-4 -31 -36 -44 0
-4 -31 -36 -55 0
-4 -31 -36 -58 0
-4 -31 -44 -55 0
-4 -31 -44 -58 0
-4 -31 -55 -58 0
-4 -36 -44 -55 0
-4 -36 -44 -58 0
-4 -36 -55 -58 0
-4 -44 -55 -58 0
-12 -16 -22 -31 0
-12 -16 -22 -36 0
-12 -16 -22 -44 0
-12 -16 -22 -55 0
-12 -16 -22 -58 0
-12 -16 -31 -36 0
-12 -16 -31 -44 0
-12 -16 -31 -55 0
-12 -16 -31 -58 0
-12 -16 -36 -44 0
-12 -16 -36 -55 0
-12 -16 -36 -58 0
-12 -16 -44 -55 0
-12 -16 -44 -58 0
-12 -16 -55 -58 0
-12 -22 -31 -36 0
-12 -22 -31 -44 0
-12 -22 -31 -55 0
-12 -22 -31 -58 0
-12 -22 -36 -44 0
-12 -22 -36 -55 0
-12 -22 -36 -58 0
-12 -22 -44 -55 0
-12 -22 -44 -58 0
-12 -22 -55 -58 0
-12 -31 -36 -44 0
-12 -31 -36 -55 0
-12 -31 -36 -58 0
-12 -31 -44 -55 0
-12 -31 -44 -58 0
-12 -31 -55 -58 0
-12 -36 -44 -55 0
-12 -36 -44 -58 0
-12 -36 -55 -58 0
-12 -44 -55 -58 0
-16 -22 -31 -36 0
-16 -22 -31 -44 0
-16 -22 -31 -55 0
-16 -22 -31 -58 0
-16 -22 -36 -44 0
-16 -22 -36 -55 0
-16 -22 -36 -58 0
-16 -22 -44 -55 0
-16 -22 -44 -58 0
-16 -22 -55 -58 0
-16 -31 -36 -44 0
-16 -31 -36 -55 0
-16 -31 -36 -58 0
-16 -31 -44 -55 0
-16 -31 -44 -58 0
-16 -31 -55 -58 0
-16 -36 -44 -55 0
-16 -36 -44 -58 0
-16 -36 -55 -58 0
-16 -44 -55 -58 0
-22 -31 -36 -44 0
-22 -31 -36 -55 0
-22 -31 -36 -58 0
-22 -31 -44 -55 0
-22 -31 -44 -58 0
-22 -31 -55 -58 0
-22 -36 -44 -55 0
-22 -36 -44 -58 0
-22 -36 -55 -58 0
-22 -44 -55 -58 0
-31 -36 -44 -55 0
-31 -36 -44 -58 0
-31 -36 -55 -58 0
-31 -44 -55 -58 0
-36 -44 -55 -58 0
-5 -10 -21 -27 0
-5 -10 -21 -32 0
-5 -10 -21 -39 0
-5 -10 -21 -43 0
-5 -10 -21 -50 0
-5 -10 -21 -58 0
-5 -10 -27 -32 0
-5 -10 -27 -39 0
-5 -10 -27 -43 0
-5 -10 -27 -50 0
-5 -10 -27 -58 0
-5 -10 -32 -39 0
-5 -10 -32 -43 0
-5 -10 -32 -50 0
-5 -10 -32 -58 0
-5 -10 -39 -43 0
-5 -10 -39 -50 0
-5 -10 -39 -58 0
-5 -10 -43 -50 0
-5 -10 -43 -58 0
-5 -10 -50 -58 0
-5 -21 -27 -32 0
-5 -21 -27 -39 0
-5 -21 -27 -43 0
-5 -21 -27 -50 0
-5 -21 -27 -58 0
-5 -21 -32 -39 0
-5 -21 -32 -43 0
-5 -21 -32 -50 0
-5 -21 -32 -58 0
-5 -21 -39 -43 0
-5 -21 -39 -50 0
-5 -21 -39 -58 0
-5 -21 -43 -50 0
-5 -21 -43 -58 0
-5 -21 -50 -58 0
-5 -27 -32 -39 0
-5 -27 -32 -43 0
-5 -27 -32 -50 0
-5 -27 -32 -58 0
-5 -27 -39 -43 0
-5 -27 -39 -50 0
-5 -27 -39 -58 0
-5 -27 -43 -50 0
-5 -27 -43 -58 0
-5 -27 -50 -58 0
-5 -32 -39 -43 0
-5 -32 -39 -50 0
-5 -32 -39 -58 0
-5 -32 -43 -50 0
-5 -32 -43 -58 0
-5 -32 -50 -58 0
-5 -39 -43 -50 0
-5 -39 -43 -58 0
-5 -39 -50 -58 0
-5 -43 -50 -58 0
-10 -21 -27 -32 0
-10 -21 -27 -39 0
-10 -21 -27 -43 0
-10 -21 -27 -50 0
-10 -21 -27 -58 0
-10 -21 -32 -39 0
-10 -21 -32 -43 0
-10 -21 -32 -50 0
-10 -21 -32 -58 0
-10 -21 -39 -43 0
-10 -21 -39 -50 0
-10 -21 -39 -58 0
-10 -21 -43 -50 0
-10 -21 -43 -58 0
-10 -21 -50 -58 0
-10 -27 -32 -39 0
-10 -27 -32 -43 0
-10 -27 -32 -50 0
-10 -27 -32 -58 0
-10 -27 -39 -43 0
-10 -27 -39 -50 0
-10 -27 -39 -58 0
-10 -27 -43 -50 0
-10 -27 -43 -58 0
-10 -27 -50 -58 0
-10 -32 -39 -43 0
-10 -32 -39 -50 0
-10 -32 -39 -58 0
-10 -32 -43 -50 0
-10 -32 -43 -58 0
-10 -32 -50 -58 0
-10 -39 -43 -50 0
-10 -39 -43 -58 0
-10 -39 -50 -58 0
-10 -43 -50 -58 0
-21 -27 -32 -39 0
-21 -27 -32 -43 0
-21 -27 -32 -50 0
-21 -27 -32 -58 0
-21 -27 -39 -43 0
-21 -27 -39 -50 0
-21 -27 -39 -58 0
-21 -27 -43 -50 0
-21 -27 -43 -58 0
-21 -27 -50 -58 0
-21 -32 -39 -43 0
-21 -32 -39 -50 0
-21 -32 -39 -58 0
-21 -32 -43 -50 0
-21 -32 -43 -58 0
-21 -32 -50 -58 0
-21 -39 -43 -50 0
-21 -39 -43 -58 0
-21 -39 -50 -58 0
-21 -43 -50 -58 0
-27 -32 -39 -43 0
-27 -32 -39 -50 0
-27 -32 -39 -58 0
-27 -32 -43 -50 0
-27 -32 -43 -58 0
-27 -32 -50 -58 0
-27 -39 -43 -50 0
-27 -39 -43 -58 0
-27 -39 -50 -58 0
-27 -43 -50 -58 0
-32 -39 -43 -50 0
-32 -39 -43 -58 0
-32 -39 -50 -58 0
-32 -43 -50 -58 0
-39 -43 -50 -58 0
-7 -11 -21 -28 0
-7 -11 -21 -31 0
-7 -11 -21 -39 0
-7 -11 -21 -46 0
-7 -11 -21 -53 0
-7 -11 -21 -58 0
-7 -11 -28 -31 0
-7 -11 -28 -39 0
-7 -11 -28 -46 0
-7 -11 -28 -53 0
-7 -11 -28 -58 0
-7 -11 -31 -39 0
-7 -11 -31 -46 0
-7 -11 -31 -53 0
-7 -11 -31 -58 0
-7 -11 -39 -46 0
-7 -11 -39 -53 0
-7 -11 -39 -58 0
-7 -11 -46 -53 0
-7 -11 -46 -58 0
-7 -11 -53 -58 0
-7 -21 -28 -31 0
-7 -21 -28 -39 0
-7 -21 -28 -46 0
-7 -21 -28 -53 0
-7 -21 -28 -58 0
-7 -21 -31 -39 0
-7 -21 -31 -46 0
-7 -21 -31 -53 0
-7 -21 -31 -58 0
-7 -21 -39 -46 0
-7 -21 -39 -53 0
-7 -21 -39 -58 0
-7 -21 -46 -53 0
-7 -21 -46 -58 0
-7 -21 -53 -58 0
-7 -28 -31 -39 0
-7 -28 -31 -46 0
-7 -28 -31 -53 0
-7 -28 -31 -58 0
-7 -28 -39 -46 0
-7 -28 -39 -53 0
-7 -28 -39 -58 0
-7 -28 -46 -53 0
-7 -28 -46 -58 0
-7 -28 -53 -58 0
-7 -31 -39 -46 0
-7 -31 -39 -53 0
-7 -31 -39 -58 0
-7 -31 -46 -53 0
-7 -31 -46 -58 0
-7 -31 -53 -58 0
-7 -39 -46 -53 0
-7 -39 -46 -58 0
-7 -39 -53 -58 0
-7 -46 -53 -58 0
-11 -21 -28 -31 0
-11 -21 -28 -39 0
-11 -21 -28 -46 0
-11 -21 -28 -53 0
-11 -21 -28 -58 0
-11 -21 -31 -39 0
-11 -21 -31 -46 0
-11 -21 -31 -53 0
-11 -21 -31 -58 0
-11 -21 -39 -46 0
-11 -21 -39 -53 0
-11 -21 -39 -58 0
-11 -21 -46 -53 0
-11 -21 -46 -58 0
-11 -21 -53 -58 0
-11 -28 -31 -39 0
-11 -28 -31 -46 0
-11 -28 -31 -53 0
-11 -28 -31 -58 0
-11 -28 -39 -46 0
-11 -28 -39 -53 0
-11 -28 -39 -58 0
-11 -28 -46 -53 0
-11 -28 -46 -58 0
-11 -28 -53 -58 0
-11 -31 -39 -46 0
-11 -31 -39 -53 0
-11 -31 -39 -58 0
-11 -31 -46 -53 0
-11 -31 -46 -58 0
-11 -31 -53 -58 0
-11 -39 -46 -53 0
-11 -39 -46 -58 0
-11 -39 -53 -58 0
-11 -46 -53 -58 0
-21 -28 -31 -39 0
-21 -28 -31 -46 0
-21 -28 -31 -53 0
-21 -28 -31 -58 0
-21 -28 -39 -46 0
-21 -28 -39 -53 0
-21 -28 -39 -58 0
-21 -28 -46 -53 0
-21 -28 -46 -58 0
-21 -28 -53 -58 0
-21 -31 -39 -46 0
-21 -31 -39 -53 0
-21 -31 -39 -58 0
-21 -31 -46 -53 0
-21 -31 -46 -58 0
-21 -31 -53 -58 0
-21 -39 -46 -53 0
-21 -39 -46 -58 0
-21 -39 -53 -58 0
-21 -46 -53 -58 0
-28 -31 -39 -46 0
-28 -31 -39 -53 0
-28 -31 -39 -58 0
-28 -31 -46 -53 0
-28 -31 -46 -58 0
-28 -31 -53 -58 0
-28 -39 -46 -53 0
-28 -39 -46 -58 0
-28 -39 -53 -58 0
-28 -46 -53 -58 0
-31 -39 -46 -53 0
-31 -39 -46 -58 0
-31 -39 -53 -58 0
-31 -46 -53 -58 0
-39 -46 -53 -58 0
-3 -14 -16 -25 0
-3 -14 -16 -35 0
-3 -14 -16 -39 0
-3 -14 -16 -47 0
-3 -14 -16 -50 0
-3 -14 -16 -60 0
-3 -14 -25 -35 0
-3 -14 -25 -39 0
-3 -14 -25 -47 0
-3 -14 -25 -50 0
-3 -14 -25 -60 0
-3 -14 -35 -39 0
-3 -14 -35 -47 0
-3 -14 -35 -50 0
-3 -14 -35 -60 0
-3 -14 -39 -47 0
-3 -14 -39 -50 0
-3 -14 -39 -60 0
-3 -14 -47 -50 0
-3 -14 -47 -60 0
-3 -14 -50 -60 0
-3 -16 -25 -35 0
-3 -16 -25 -39 0
-3 -16 -25 -47 0
-3 -16 -25 -50 0
-3 -16 -25 -60 0
-3 -16 -35 -39 0
-3 -16 -35 -47 0
-3 -16 -35 -50 0
-3 -16 -35 -60 0
-3 -16 -39 -47 0
-3 -16 -39 -50 0
-3 -16 -39 -60 0
-3 -16 -47 -50 0
-3 -16 -47 -60 0
-3 -16 -50 -60 0
-3 -25 -35 -39 0
-3 -25 -35 -47 0
-3 -25 -35 -50 0
-3 -25 -35 -60 0
-3 -25 -39 -47 0
-3 -25 -39 -50 0
-3 -25 -39 -60 0
-3 -25 -47 -50 0
-3 -25 -47 -60 0
-3 -25 -50 -60 0
-3 -35 -39 -47 0
-3 -35 -39 -50 0
-3 -35 -39 -60 0
-3 -35 -47 -50 0
-3 -35 -47 -60 0
-3 -35 -50 -60 0
-3 -39 -47 -50 0
-3 -39 -47 -60 0
-3 -39 -50 -60 0
-3 -47 -50 -60 0
-14 -16 -25 -35 0
-14 -16 -25 -39 0
-14 -16 -25 -47 0
-14 -16 -25 -50 0
-14 -16 -25 -60 0
-14 -16 -35 -39 0
-14 -16 -35 -47 0
-14 -16 -35 -50 0
-14 -16 -35 -60 0
-14 -16 -39 -47 0
-14 -16 -39 -50 0
-14 -16 -39 -60 0
-14 -16 -47 -50 0
-14 -16 -47 -60 0
-14 -16 -50 -60 0
-14 -25 -35 -39 0
-14 -25 -35 -47 0
-14 -25 -35 -50 0
-14 -25 -35 -60 0
-14 -25 -39 -47 0
-14 -25 -39 -50 0
-14 -25 -39 -60 0
-14 -25 -47 -50 0
-14 -25 -47 -60 0
-14 -25 -50 -60 0
-14 -35 -39 -47 0
-14 -35 -39 -50 0
-14 -35 -39 -60 0
-14 -35 -47 -50 0
-14 -35 -47 -60 0
-14 -35 -50 -60 0
-14 -39 -47 -50 0
-14 -39 -47 -60 0
-14 -39 -50 -60 0
-14 -47 -50 -60 0
-16 -25 -35 -39 0
-16 -25 -35 -47 0
-16 -25 -35 -50 0
-16 -25 -35 -60 0
-16 -25 -39 -47 0
-16 -25 -39 -50 0
-16 -25 -39 -60 0
-16 -25 -47 -50 0
-16 -25 -47 -60 0
-16 -25 -50 -60 0
-16 -35 -39 -47 0
-16 -35 -39 -50 0
-16 -35 -39 -60 0
-16 -35 -47 -50 0
-16 -35 -47 -60 0
-16 -35 -50 -60 0
-16 -39 -47 -50 0
-16 -39 -47 -60 0
-16 -39 -50 -60 0
-16 -47 -50 -60 0
-25 -35 -39 -47 0
-25 -35 -39 -50 0
-25 -35 -39 -60 0
-25 -35 -47 -50 0
-25 -35 -47 -60 0
-25 -35 -50 -60 0
-25 -39 -47 -50 0
-25 -39 -47 -60 0
-25 -39 -50 -60 0
-25 -47 -50 -60 0
-35 -39 -47 -50 0
-35 -39 -47 -60 0
-35 -39 -50 -60 0
-35 -47 -50 -60 0
-39 -47 -50 -60 0
-5 -11 -18 -27 0
-5 -11 -18 -34 0
-5 -11 -18 -42 0
-5 -11 -18 -48 0
-5 -11 -18 -55 0
-5 -11 -18 -62 0
-5 -11 -27 -34 0
-5 -11 -27 -42 0
-5 -11 -27 -48 0
-5 -11 -27 -55 0
-5 -11 -27 -62 0
-5 -11 -34 -42 0
-5 -11 -34 -48 0
-5 -11 -34 -55 0
-5 -11 -34 -62 0
-5 -11 -42 -48 0
-5 -11 -42 -55 0
-5 -11 -42 -62 0
-5 -11 -48 -55 0
-5 -11 -48 -62 0
-5 -11 -55 -62 0
-5 -18 -27 -34 0
-5 -18 -27 -42 0
-5 -18 -27 -48 0
-5 -18 -27 -55 0
-5 -18 -27 -62 0
-5 -18 -34 -42 0
-5 -18 -34 -48 0
-5 -18 -34 -55 0
-5 -18 -34 -62 0
-5 -18 -42 -48 0
-5 -18 -42 -55 0
-5 -18 -42 -62 0
-5 -18 -48 -55 0
-5 -18 -48 -62 0
-5 -18 -55 -62 0
-5 -27 -34 -42 0
-5 -27 -34 -48 0
-5 -27 -34 -55 0
-5 -27 -34 -62 0
-5 -27 -42 -48 0
-5 -27 -42 -55 0
-5 -27 -42 -62 0
-5 -27 -48 -55 0
-5 -27 -48 -62 0
-5 -27 -55 -62 0
-5 -34 -42 -48 0
-5 -34 -42 -55 0
-5 -34 -42 -62 0
-5 -34 -48 -55 0
-5 -34 -48 -62 0
-5 -34 -55 -62 0
-5 -42 -48 -55 0
-5 -42 -48 -62 0
-5 -42 -55 -62 0
-5 -48 -55 -62 0
-11 -18 -27 -34 0
-11 -18 -27 -42 0
-11 -18 -27 -48 0
-11 -18 -27 -55 0
-11 -18 -27 -62 0
-11 -18 -34 -42 0
-11 -18 -34 -48 0
-11 -18 -34 -55 0
-11 -18 -34 -62 0
-11 -18 -42 -48 0
-11 -18 -42 -55 0
-11 -18 -42 -62 0
-11 -18 -48 -55 0
-11 -18 -48 -62 0
-11 -18 -55 -62 0
-11 -27 -34 -42 0
-11 -27 -34 -48 0
-11 -27 -34 -55 0
-11 -27 -34 -62 0
-11 -27 -42 -48 0
-11 -27 -42 -55 0
-11 -27 -42 -62 0
-11 -27 -48 -55 0
-11 -27 -48 -62 0
-11 -27 -55 -62 0
-11 -34 -42 -48 0
-11 -34 -42 -55 0
-11 -34 -42 -62 0
-11 -34 -48 -55 0
-11 -34 -48 -62 0
-11 -34 -55 -62 0
-11 -42 -48 -55 0
-11 -42 -48 -62 0
-11 -42 -55 -62 0
-11 -48 -55 -62 0
-18 -27 -34 -42 0
-18 -27 -34 -48 0
-18 -27 -34 -55 0
-18 -27 -34 -62 0
-18 -27 -42 -48 0
-18 -27 -42 -55 0
-18 -27 -42 -62 0
-18 -27 -48 -55 0
-18 -27 -48 -62 0
-18 -27 -55 -62 0
-18 -34 -42 -48 0
-18 -34 -42 -55 0
-18 -34 -42 -62 0
-18 -34 -48 -55 0
-18 -34 -48 -62 0
-18 -34 -55 -62 0
-18 -42 -48 -55 0
-18 -42 -48 -62 0
-18 -42 -55 -62 0
-18 -48 -55 -62 0
-27 -34 -42 -48 0
-27 -34 -42 -55 0
-27 -34 -42 -62 0
-27 -34 -48 -55 0
-27 -34 -48 -62 0
-27 -34 -55 -62 0
-27 -42 -48 -55 0
-27 -42 -48 -62 0
-27 -42 -55 -62 0
-27 -48 -55 -62 0
-34 -42 -48 -55 0
-34 -42 -48 -62 0
-34 -42 -55 -62 0
-34 -48 -55 -62 0
-42 -48 -55 -62 0
-5 -9 -21 -22 0
-5 -9 -21 -32 0
-5 -9 -21 -36 0
-5 -9 -21 -47 0
-5 -9 -21 -55 0
-5 -9 -21 -61 0
-5 -9 -22 -32 0
-5 -9 -22 -36 0
-5 -9 -22 -47 0
-5 -9 -22 -55 0
-5 -9 -22 -61 0
-5 -9 -32 -36 0
-5 -9 -32 -47 0
-5 -9 -32 -55 0
-5 -9 -32 -61 0
-5 -9 -36 -47 0
-5 -9 -36 -55 0
-5 -9 -36 -61 0
-5 -9 -47 -55 0
-5 -9 -47 -61 0
-5 -9 -55 -61 0
-5 -21 -22 -32 0
-5 -21 -22 -36 0
-5 -21 -22 -47 0
-5 -21 -22 -55 0
-5 -21 -22 -61 0
-5 -21 -32 -36 0
-5 -21 -32 -47 0
-5 -21 -32 -55 0
-5 -21 -32 -61 0
-5 -21 -36 -47 0
-5 -21 -36 -55 0
-5 -21 -36 -61 0
-5 -21 -47 -55 0
-5 -21 -47 -61 0
-5 -21 -55 -61 0
-5 -22 -32 -36 0
-5 -22 -32 -47 0
-5 -22 -32 -55 0
-5 -22 -32 -61 0
-5 -22 -36 -47 0
-5 -22 -36 -55 0
-5 -22 -36 -61 0
-5 -22 -47 -55 0
-5 -22 -47 -61 0
-5 -22 -55 -61 0
-5 -32 -36 -47 0
-5 -32 -36 -55 0
-5 -32 -36 -61 0
-5 -32 -47 -55 0
-5 -32 -47 -61 0
-5 -32 -55 -61 0
-5 -36 -47 -55 0
-5 -36 -47 -61 0
-5 -36 -55 -61 0
-5 -47 -55 -61 0
-9 -21 -22 -32 0
-9 -21 -22 -36 0
-9 -21 -22 -47 0
-9 -21 -22 -55 0
-9 -21 -22 -61 0
-9 -21 -32 -36 0
-9 -21 -32 -47 0
-9 -21 -32 -55 0
-9 -21 -32 -61 0
-9 -21 -36 -47 0
-9 -21 -36 -55 0
-9 -21 -36 -61 0
-9 -21 -47 -55 0
-9 -21 -47 -61 0
-9 -21 -55 -61 0
-9 -22 -32 -36 0
-9 -22 -32 -47 0
-9 -22 -32 -55 0
-9 -22 -32 -61 0
-9 -22 -36 -47 0
-9 -22 -36 -55 0
-9 -22 -36 -61 0
-9 -22 -47 -55 0
-9 -22 -47 -61 0
-9 -22 -55 -61 0
-9 -32 -36 -47 0
-9 -32 -36 -55 0
-9 -32 -36 -61 0
-9 -32 -47 -55 0
-9 -32 -47 -61 0
-9 -32 -55 -61 0
-9 -36 -47 -55 0
-9 -36 -47 -61 0
-9 -36 -55 -61 0
-9 -47 -55 -61 0
-21 -22 -32 -36 0
-21 -22 -32 -47 0
-21 -22 -32 -55 0
-21 -22 -32 -61 0
-21 -22 -36 -47 0
-21 -22 -36 -55 0
-21 -22 -36 -61 0
-21 -22 -47 -55 0
-21 -22 -47 -61 0
-21 -22 -55 -61 0
-21 -32 -36 -47 0
-21 -32 -36 -55 0
-21 -32 -36 -61 0
-21 -32 -47 -55 0
-21 -32 -47 -61 0
-21 -32 -55 -61 0
-21 -36 -47 -55 0
-21 -36 -47 -61 0
-21 -36 -55 -61 0
-21 -47 -55 -61 0
-22 -32 -36 -47 0
-22 -32 -36 -55 0
-22 -32 -36 -61 0
-22 -32 -47 -55 0
-22 -32 -47 -61 0
-22 -32 -55 -61 0
-22 -36 -47 -55 0
-22 -36 -47 -61 0
-22 -36 -55 -61 0
-22 -47 -55 -61 0
-32 -36 -47 -55 0
-32 -36 -47 -61 0
-32 -36 -55 -61 0
-32 -47 -55 -61 0
-36 -47 -55 -61 0
-4 -14 -21 -27 0
-4 -14 -21 -30 0
-4 -14 -21 -42 0
-4 -14 -21 -44 0
-4 -14 -21 -53 0
-4 -14 -21 -57 0
-4 -14 -27 -30 0
-4 -14 -27 -42 0
-4 -14 -27 -44 0
-4 -14 -27 -53 0
-4 -14 -27 -57 0
-4 -14 -30 -42 0
-4 -14 -30 -44 0
-4 -14 -30 -53 0
-4 -14 -30 -57 0
-4 -14 -42 -44 0
-4 -14 -42 -53 0
-4 -14 -42 -57 0
-4 -14 -44 -53 0
-4 -14 -44 -57 0
-4 -14 -53 -57 0
-4 -21 -27 -30 0
-4 -21 -27 -42 0
-4 -21 -27 -44 0
-4 -21 -27 -53 0
-4 -21 -27 -57 0
-4 -21 -30 -42 0
-4 -21 -30 -44 0
-4 -21 -30 -53 0
-4 -21 -30 -57 0
-4 -21 -42 -44 0
-4 -21 -42 -53 0
-4 -21 -42 -57 0
-4 -21 -44 -53 0
-4 -21 -44 -57 0
-4 -21 -53 -57 0
-4 -27 -30 -42 0
-4 -27 -30 -44 0
-4 -27 -30 -53 0
-4 -27 -30 -57 0
-4 -27 -42 -44 0
-4 -27 -42 -53 0
-4 -27 -42 -57 0
-4 -27 -44 -53 0
-4 -27 -44 -57 0
-4 -27 -53 -57 0
-4 -30 -42 -44 0
-4 -30 -42 -53 0
-4 -30 -42 -57 0
-4 -30 -44 -53 0
-4 -30 -44 -57 0
-4 -30 -53 -57 0
-4 -42 -44 -53 0
-4 -42 -44 -57 0
-4 -42 -53 -57 0
-4 -44 -53 -57 0
-14 -21 -27 -30 0
-14 -21 -27 -42 0
-14 -21 -27 -44 0
-14 -21 -27 -53 0
-14 -21 -27 -57 0
-14 -21 -30 -42 0
-14 -21 -30 -44 0
-14 -21 -30 -53 0
-14 -21 -30 -57 0
-14 -21 -42 -44 0
-14 -21 -42 -53 0
-14 -21 -42 -57 0
-14 -21 -44 -53 0
-14 -21 -44 -57 0
-14 -21 -53 -57 0
-14 -27 -30 -42 0
-14 -27 -30 -44 0
-14 -27 -30 -53 0
-14 -27 -30 -57 0
-14 -27 -42 -44 0
-14 -27 -42 -53 0
-14 -27 -42 -57 0
-14 -27 -44 -53 0
-14 -27 -44 -57 0
-14 -27 -53 -57 0
-14 -30 -42 -44 0
-14 -30 -42 -53 0
-14 -30 -42 -57 0
-14 -30 -44 -53 0
-14 -30 -44 -57 0
-14 -30 -53 -57 0
-14 -42 -44 -53 0
-14 -42 -44 -57 0
-14 -42 -53 -57 0
-14 -44 -53 -57 0
-21 -27 -30 -42 0
-21 -27 -30 -44 0
-21 -27 -30 -53 0
-21 -27 -30 -57 0
-21 -27 -42 -44 0
-21 -27 -42 -53 0
-21 -27 -42 -57 0
-21 -27 -44 -53 0
-21 -27 -44 -57 0
-21 -27 -53 -57 0
-21 -30 -42 -44 0
-21 -30 -42 -53 0
-21 -30 -42 -57 0
-21 -30 -44 -53 0
-21 -30 -44 -57 0
-21 -30 -53 -57 0
-21 -42 -44 -53 0
-21 -42 -44 -57 0
-21 -42 -53 -57 0
-21 -44 -53 -57 0
-27 -30 -42 -44 0
-27 -30 -42 -53 0
-27 -30 -42 -57 0
-27 -30 -44 -53 0
-27 -30 -44 -57 0
-27 -30 -53 -57 0
-27 -42 -44 -53 0
-27 -42 -44 -57 0
-27 -42 -53 -57 0
-27 -44 -53 -57 0
-30 -42 -44 -53 0
-30 -42 -44 -57 0
-30 -42 -53 -57 0
-30 -44 -53 -57 0
-42 -44 -53 -57 0
-2 -12 -15 -26 0
-2 -12 -15 -32 0
-2 -12 -15 -41 0
-2 -12 -15 -46 0
-2 -12 -15 -55 0
-2 -12 -15 -60 0
-2 -12 -26 -32 0
-2 -12 -26 -41 0
-2 -12 -26 -46 0
-2 -12 -26 -55 0
-2 -12 -26 -60 0
-2 -12 -32 -41 0
-2 -12 -32 -46 0
-2 -12 -32 -55 0
-2 -12 -32 -60 0
-2 -12 -41 -46 0
-2 -12 -41 -55 0
-2 -12 -41 -60 0
-2 -12 -46 -55 0
-2 -12 -46 -60 0
-2 -12 -55 -60 0
-2 -15 -26 -32 0
-2 -15 -26 -41 0
-2 -15 -26 -46 0
-2 -15 -26 -55 0
-2 -15 -26 -60 0
-2 -15 -32 -41 0
-2 -15 -32 -46 0
-2 -15 -32 -55 0
-2 -15 -32 -60 0
-2 -15 -41 -46 0
-2 -15 -41 -55 0
-2 -15 -41 -60 0
-2 -15 -46 -55 0
-2 -15 -46 -60 0
-2 -15 -55 -60 0
-2 -26 -32 -41 0
-2 -26 -32 -46 0
-2 -26 -32 -55 0
-2 -26 -32 -60 0
-2 -26 -41 -46 0
-2 -26 -41 -55 0
-2 -26 -41 -60 0
-2 -26 -46 -55 0
-2 -26 -46 -60 0
-2 -26 -55 -60 0
-2 -32 -41 -46 0
-2 -32 -41 -55 0
-2 -32 -41 -60 0
-2 -32 -46 -55 0
-2 -32 -46 -60 0
-2 -32 -55 -60 0
-2 -41 -46 -55 0
-2 -41 -46 -60 0
-2 -41 -55 -60 0
-2 -46 -55 -60 0
-12 -15 -26 -32 0
-12 -15 -26 -41 0
-12 -15 -26 -46 0
-12 -15 -26 -55 0
-12 -15 -26 -60 0
-12 -15 -32 -41 0
-12 -15 -32 -46 0
-12 -15 -32 -55 0
-12 -15 -32 -60 0
-12 -15 -41 -46 0
-12 -15 -41 -55 0
-12 -15 -41 -60 0
-12 -15 -46 -55 0
-12 -15 -46 -60 0
-12 -15 -55 -60 0
-12 -26 -32 -41 0
-12 -26 -32 -46 0
-12 -26 -32 -55 0
-12 -26 -32 -60 0
-12 -26 -41 -46 0
-12 -26 -41 -55 0
-12 -26 -41 -60 0
-12 -26 -46 -55 0
-12 -26 -46 -60 0
-12 -26 -55 -60 0
-12 -32 -41 -46 0
-12 -32 -41 -55 0
-12 -32 -41 -60 0
-12 -32 -46 -55 0
-12 -32 -46 -60 0
-12 -32 -55 -60 0
-12 -41 -46 -55 0
-12 -41 -46 -60 0
-12 -41 -55 -60 0
-12 -46 -55 -60 0
-15 -26 -32 -41 0
-15 -26 -32 -46 0
-15 -26 -32 -55 0
-15 -26 -32 -60 0
-15 -26 -41 -46 0
-15 -26 -41 -55 0
-15 -26 -41 -60 0
-15 -26 -46 -55 0
-15 -26 -46 -60 0
-15 -26 -55 -60 0
-15 -32 -41 -46 0
-15 -32 -41 -55 0
-15 -32 -41 -60 0
-15 -32 -46 -55 0
-15 -32 -46 -60 0
-15 -32 -55 -60 0
-15 -41 -46 -55 0
-15 -41 -46 -60 0
-15 -41 -55 -60 0
-15 -46 -55 -60 0
-26 -32 -41 -46 0
-26 -32 -41 -55 0
-26 -32 -41 -60 0
-26 -32 -46 -55 0
-26 -32 -46 -60 0
-26 -32 -55 -60 0
-26 -41 -46 -55 0
-26 -41 -46 -60 0
-26 -41 -55 -60 0
-26 -46 -55 -60 0
-32 -41 -46 -55 0
-32 -41 -46 -60 0
-32 -41 -55 -60 0
-32 -46 -55 -60 0
-41 -46 -55 -60 0
-2 -12 -18 -28 0
-2 -12 -18 -31 0
-2 -12 -18 -39 0
-2 -12 -18 -44 0
-2 -12 -18 -54 0
-2 -12 -18 -61 0
-2 -12 -28 -31 0
-2 -12 -28 -39 0
-2 -12 -28 -44 0
-2 -12 -28 -54 0
-2 -12 -28 -61 0
-2 -12 -31 -39 0
-2 -12 -31 -44 0
-2 -12 -31 -54 0
-2 -12 -31 -61 0
-2 -12 -39 -44 0
-2 -12 -39 -54 0
-2 -12 -39 -61 0
-2 -12 -44 -54 0
-2 -12 -44 -61 0
-2 -12 -54 -61 0
-2 -18 -28 -31 0
-2 -18 -28 -39 0
-2 -18 -28 -44 0
-2 -18 -28 -54 0
-2 -18 -28 -61 0
-2 -18 -31 -39 0
-2 -18 -31 -44 0
-2 -18 -31 -54 0
-2 -18 -31 -61 0
-2 -18 -39 -44 0
-2 -18 -39 -54 0
-2 -18 -39 -61 0
-2 -18 -44 -54 0
-2 -18 -44 -61 0
-2 -18 -54 -61 0
-2 -28 -31 -39 0
-2 -28 -31 -44 0
-2 -28 -31 -54 0
-2 -28 -31 -61 0
-2 -28 -39 -44 0
-2 -28 -39 -54 0
-2 -28 -39 -61 0
-2 -28 -44 -54 0
-2 -28 -44 -61 0
-2 -28 -54 -61 0
-2 -31 -39 -44 0
-2 -31 -39 -54 0
-2 -31 -39 -61 0
-2 -31 -44 -54 0
-2 -31 -44 -61 0
-2 -31 -54 -61 0
-2 -39 -44 -54 0
-2 -39 -44 -61 0
-2 -39 -54 -61 0
-2 -44 -54 -61 0
-12 -18 -28 -31 0
-12 -18 -28 -39 0
-12 -18 -28 -44 0
-12 -18 -28 -54 0
-12 -18 -28 -61 0
-12 -18 -31 -39 0
-12 -18 -31 -44 0
-12 -18 -31 -54 0
-12 -18 -31 -61 0
-12 -18 -39 -44 0
-12 -18 -39 -54 0
-12 -18 -39 -61 0
-12 -18 -44 -54 0
-12 -18 -44 -61 0
-12 -18 -54 -61 0
-12 -28 -31 -39 0
-12 -28 -31 -44 0
-12 -28 -31 -54 0
-12 -28 -31 -61 0
-12 -28 -39 -44 0
-12 -28 -39 -54 0
-12 -28 -39 -61 0
-12 -28 -44 -54 0
-12 -28 -44 -61 0
-12 -28 -54 -61 0
-12 -31 -39 -44 0
-12 -31 -39 -54 0
-12 -31 -39 -61 0
-12 -31 -44 -54 0
-12 -31 -44 -61 0
-12 -31 -54 -61 0
-12 -39 -44 -54 0
-12 -39 -44 -61 0
-12 -39 -54 -61 0
-12 -44 -54 -61 0
-18 -28 -31 -39 0
-18 -28 -31 -44 0
-18 -28 -31 -54 0
-18 -28 -31 -61 0
-18 -28 -39 -44 0
-18 -28 -39 -54 0
-18 -28 -39 -61 0
-18 -28 -44 -54 0
-18 -28 -44 -61 0
-18 -28 -54 -61 0
-18 -31 -39 -44 0
-18 -31 -39 -54 0
-18 -31 -39 -61 0
-18 -31 -44 -54 0
-18 -31 -44 -61 0
-18 -31 -54 -61 0
-18 -39 -44 -54 0
-18 -39 -44 -61 0
-18 -39 -54 -61 0
-18 -44 -54 -61 0
-28 -31 -39 -44 0
-28 -31 -39 -54 0
-28 -31 -39 -61 0
-28 -31 -44 -54 0
-28 -31 -44 -61 0
-28 -31 -54 -61 0
-28 -39 -44 -54 0
-28 -39 -44 -61 0
-28 -39 -54 -61 0
-28 -44 -54 -61 0
-31 -39 -44 -54 0
-31 -39 -44 -61 0
-31 -39 -54 -61 0
-31 -44 -54 -61 0
-39 -44 -54 -61 0
-1 -11 -15 -27 0
-1 -11 -15 -35 0
-1 -11 -15 -39 0
-1 -11 -15 -47 0
-1 -11 -15 -51 0
-1 -11 -15 -62 0
-1 -11 -27 -35 0
-1 -11 -27 -39 0
-1 -11 -27 -47 0
-1 -11 -27 -51 0
-1 -11 -27 -62 0
-1 -11 -35 -39 0
-1 -11 -35 -47 0
-1 -11 -35 -51 0
-1 -11 -35 -62 0
-1 -11 -39 -47 0
-1 -11 -39 -51 0
-1 -11 -39 -62 0
-1 -11 -47 -51 0
-1 -11 -47 -62 0
-1 -11 -51 -62 0
-1 -15 -27 -35 0
-1 -15 -27 -39 0
-1 -15 -27 -47 0
-1 -15 -27 -51 0
-1 -15 -27 -62 0
-1 -15 -35 -39 0
-1 -15 -35 -47 0
-1 -15 -35 -51 0
-1 -15 -35 -62 0
-1 -15 -39 -47 0
-1 -15 -39 -51 0
-1 -15 -39 -62 0
-1 -15 -47 -51 0
-1 -15 -47 -62 0
-1 -15 -51 -62 0
-1 -27 -35 -39 0
-1 -27 -35 -47 0
-1 -27 -35 -51 0
-1 -27 -35 -62 0
-1 -27 -39 -47 0
-1 -27 -39 -51 0
-1 -27 -39 -62 0
-1 -27 -47 -51 0
-1 -27 -47 -62 0
-1 -27 -51 -62 0
-1 -35 -39 -47 0
-1 -35 -39 -51 0
-1 -35 -39 -62 0
-1 -35 -47 -51 0
-1 -35 -47 -62 0
-1 -35 -51 -62 0
-1 -39 -47 -51 0
-1 -39 -47 -62 0
-1 -39 -51 -62 0
-1 -47 -51 -62 0
-11 -15 -27 -35 0
-11 -15 -27 -39 0
-11 -15 -27 -47 0
-11 -15 -27 -51 0
-11 -15 -27 -62 0
-11 -15 -35 -39 0
-11 -15 -35 -47 0
-11 -15 -35 -51 0
-11 -15 -35 -62 0
-11 -15 -39 -47 0
-11 -15 -39 -51 0
-11 -15 -39 -62 0
-11 -15 -47 -51 0
-11 -15 -47 -62 0
-11 -15 -51 -62 0
-11 -27 -35 -39 0
-11 -27 -35 -47 0
-11 -27 -35 -51 0
-11 -27 -35 -62 0
-11 -27 -39 -47 0
-11 -27 -39 -51 0
-11 -27 -39 -62 0
-11 -27 -47 -51 0
-11 -27 -47 -62 0
-11 -27 -51 -62 0
-11 -35 -39 -47 0
-11 -35 -39 -51 0
-11 -35 -39 -62 0
-11 -35 -47 -51 0
-11 -35 -47 -62 0
-11 -35 -51 -62 0
-11 -39 -47 -51 0
-11 -39 -47 -62 0
-11 -39 -51 -62 0
-11 -47 -51 -62 0
-15 -27 -35 -39 0
-15 -27 -35 -47 0
-15 -27 -35 -51 0
-15 -27 -35 -62 0
-15 -27 -39 -47 0
-15 -27 -39 -51 0
-15 -27 -39 -62 0
-15 -27 -47 -51 0
-15 -27 -47 -62 0
-15 -27 -51 -62 0
-15 -35 -39 -47 0
-15 -35 -39 -51 0
-15 -35 -39 -62 0
-15 -35 -47 -51 0
-15 -35 -47 -62 0
-15 -35 -51 -62 0
-15 -39 -47 -51 0
-15 -39 -47 -62 0
-15 -39 -51 -62 0
-15 -47 -51 -62 0
-27 -35 -39 -47 0
-27 -35 -39 -51 0
-27 -35 -39 -62 0
-27 -35 -47 -51 0
-27 -35 -47 -62 0
-27 -35 -51 -62 0
-27 -39 -47 -51 0
-27 -39 -47 -62 0
-27 -39 -51 -62 0
-27 -47 -51 -62 0
-35 -39 -47 -51 0
-35 -39 -47 -62 0
-35 -39 -51 -62 0
-35 -47 -51 -62 0
-39 -47 -51 -62 0
-3 -8 -18 -23 0
-3 -8 -18 -32 0
-3 -8 -18 -42 0
-3 -8 -18 -47 0
-3 -8 -18 -55 0
-3 -8 -18 -57 0
-3 -8 -23 -32 0
-3 -8 -23 -42 0
-3 -8 -23 -47 0
-3 -8 -23 -55 0
-3 -8 -23 -57 0
-3 -8 -32 -42 0
-3 -8 -32 -47 0
-3 -8 -32 -55 0
-3 -8 -32 -57 0
-3 -8 -42 -47 0
-3 -8 -42 -55 0
-3 -8 -42 -57 0
-3 -8 -47 -55 0
-3 -8 -47 -57 0
-3 -8 -55 -57 0
-3 -18 -23 -32 0
-3 -18 -23 -42 0
-3 -18 -23 -47 0
-3 -18 -23 -55 0
-3 -18 -23 -57 0
-3 -18 -32 -42 0
-3 -18 -32 -47 0
-3 -18 -32 -55 0
-3 -18 -32 -57 0
-3 -18 -42 -47 0
-3 -18 -42 -55 0
-3 -18 -42 -57 0
-3 -18 -47 -55 0
-3 -18 -47 -57 0
-3 -18 -55 -57 0
-3 -23 -32 -42 0
-3 -23 -32 -47 0
-3 -23 -32 -55 0
-3 -23 -32 -57 0
-3 -23 -42 -47 0
-3 -23 -42 -55 0
-3 -23 -42 -57 0
-3 -23 -47 -55 0
-3 -23 -47 -57 0
-3 -23 -55 -57 0
-3 -32 -42 -47 0
-3 -32 -42 -55 0
-3 -32 -42 -57 0
-3 -32 -47 -55 0
-3 -32 -47 -57 0
-3 -32 -55 -57 0
-3 -42 -47 -55 0
-3 -42 -47 -57 0
-3 -42 -55 -57 0
-3 -47 -55 -57 0
-8 -18 -23 -32 0
-8 -18 -23 -42 0
-8 -18 -23 -47 0
-8 -18 -23 -55 0
-8 -18 -23 -57 0
-8 -18 -32 -42 0
-8 -18 -32 -47 0
-8 -18 -32 -55 0
-8 -18 -32 -57 0
-8 -18 -42 -47 0
-8 -18 -42 -55 0
-8 -18 -42 -57 0
-8 -18 -47 -55 0
-8 -18 -47 -57 0
-8 -18 -55 -57 0
-8 -23 -32 -42 0
-8 -23 -32 -47 0
-8 -23 -32 -55 0
-8 -23 -32 -57 0
-8 -23 -42 -47 0
-8 -23 -42 -55 0
-8 -23 -42 -57 0
-8 -23 -47 -55 0
-8 -23 -47 -57 0
-8 -23 -55 -57 0
-8 -32 -42 -47 0
-8 -32 -42 -55 0
-8 -32 -42 -57 0
-8 -32 -47 -55 0
-8 -32 -47 -57 0
-8 -32 -55 -57 0
-8 -42 -47 -55 0
-8 -42 -47 -57 0
-8 -42 -55 -57 0
-8 -47 -55 -57 0
-18 -23 -32 -42 0
-18 -23 -32 -47 0
-18 -23 -32 -55 0
-18 -23 -32 -57 0
-18 -23 -42 -47 0
-18 -23 -42 -55 0
-18 -23 -42 -57 0
-18 -23 -47 -55 0
-18 -23 -47 -57 0
-18 -23 -55 -57 0
-18 -32 -42 -47 0
-18 -32 -42 -55 0
-18 -32 -42 -57 0
-18 -32 -47 -55 0
-18 -32 -47 -57 0
-18 -32 -55 -57 0
-18 -42 -47 -55 0
-18 -42 -47 -57 0
-18 -42 -55 -57 0
-18 -47 -55 -57 0
-23 -32 -42 -47 0
-23 -32 -42 -55 0
-23 -32 -42 -57 0
-23 -32 -47 -55 0
-23 -32 -47 -57 0
-23 -32 -55 -57 0
-23 -42 -47 -55 0
-23 -42 -47 -57 0
-23 -42 -55 -57 0
-23 -47 -55 -57 0
-32 -42 -47 -55 0
-32 -42 -47 -57 0
-32 -42 -55 -57 0
-32 -47 -55 -57 0
-42 -47 -55 -57 0
-2 -8 -17 -23 0
-2 -8 -17 -33 0
-2 -8 -17 -38 0
-2 -8 -17 -46 0
-2 -8 -17 -50 0
-2 -8 -17 -58 0
-2 -8 -23 -33 0
-2 -8 -23 -38 0
-2 -8 -23 -46 0
-2 -8 -23 -50 0
-2 -8 -23 -58 0
-2 -8 -33 -38 0
-2 -8 -33 -46 0
-2 -8 -33 -50 0
-2 -8 -33 -58 0
-2 -8 -38 -46 0
-2 -8 -38 -50 0
-2 -8 -38 -58 0
-2 -8 -46 -50 0
-2 -8 -46 -58 0
-2 -8 -50 -58 0
-2 -17 -23 -33 0
-2 -17 -23 -38 0
-2 -17 -23 -46 0
-2 -17 -23 -50 0
-2 -17 -23 -58 0
-2 -17 -33 -38 0
-2 -17 -33 -46 0
-2 -17 -33 -50 0
-2 -17 -33 -58 0
-2 -17 -38 -46 0
-2 -17 -38 -50 0
-2 -17 -38 -58 0
-2 -17 -46 -50 0
-2 -17 -46 -58 0
-2 -17 -50 -58 0
-2 -23 -33 -38 0
-2 -23 -33 -46 0
-2 -23 -33 -50 0
-2 -23 -33 -58 0
-2 -23 -38 -46 0
-2 -23 -38 -50 0
-2 -23 -38 -58 0
-2 -23 -46 -50 0
-2 -23 -46 -58 0
-2 -23 -50 -58 0
-2 -33 -38 -46 0
-2 -33 -38 -50 0
-2 -33 -38 -58 0
-2 -33 -46 -50 0
-2 -33 -46 -58 0
-2 -33 -50 -58 0
-2 -38 -46 -50 0
-2 -38 -46 -58 0
-2 -38 -50 -58 0
-2 -46 -50 -58 0
-8 -17 -23 -33 0
-8 -17 -23 -38 0
-8 -17 -23 -46 0
-8 -17 -23 -50 0
-8 -17 -23 -58 0
-8 -17 -33 -38 0
-8 -17 -33 -46 0
-8 -17 -33 -50 0
-8 -17 -33 -58 0
-8 -17 -38 -46 0
-8 -17 -38 -50 0
-8 -17 -38 -58 0
-8 -17 -46 -50 0
-8 -17 -46 -58 0
-8 -17 -50 -58 0
-8 -23 -33 -38 0
-8 -23 -33 -46 0
-8 -23 -33 -50 0
-8 -23 -33 -58 0
-8 -23 -38 -46 0
-8 -23 -38 -50 0
-8 -23 -38 -58 0
-8 -23 -46 -50 0
-8 -23 -46 -58 0
-8 -23 -50 -58 0
-8 -33 -38 -46 0
-8 -33 -38 -50 0
-8 -33 -38 -58 0
-8 -33 -46 -50 0
-8 -33 -46 -58 0
-8 -33 -50 -58 0
-8 -38 -46 -50 0
-8 -38 -46 -58 0
-8 -38 -50 -58 0
-8 -46 -50 -58 0
-17 -23 -33 -38 0
-17 -23 -33 -46 0
-17 -23 -33 -50 0
-17 -23 -33 -58 0
-17 -23 -38 -46 0
-17 -23 -38 -50 0
-17 -23 -38 -58 0
-17 -23 -46 -50 0
-17 -23 -46 -58 0
-17 -23 -50 -58 0
-17 -33 -38 -46 0
-17 -33 -38 -50 0
-17 -33 -38 -58 0
-17 -33 -46 -50 0
-17 -33 -46 -58 0
-17 -33 -50 -58 0
-17 -38 -46 -50 0
-17 -38 -46 -58 0
-17 -38 -50 -58 0
-17 -46 -50 -58 0
-23 -33 -38 -46 0
-23 -33 -38 -50 0
-23 -33 -38 -58 0
-23 -33 -46 -50 0
-23 -33 -46 -58 0
-23 -33 -50 -58 0
-23 -38 -46 -50 0
-23 -38 -46 -58 0
-23 -38 -50 -58 0
-23 -46 -50 -58 0
-33 -38 -46 -50 0
-33 -38 -46 -58 0
-33 -38 -50 -58 0
-33 -46 -50 -58 0
-38 -46 -50 -58 0
-6 -8 -21 -24 0
-6 -8 -21 -30 0
-6 -8 -21 -42 0
-6 -8 -21 -49 0
-6 -8 -21 -53 0
-6 -8 -21 -57 0
-6 -8 -24 -30 0
-6 -8 -24 -42 0
-6 -8 -24 -49 0
-6 -8 -24 -53 0
-6 -8 -24 -57 0
-6 -8 -30 -42 0
-6 -8 -30 -49 0
-6 -8 -30 -53 0
-6 -8 -30 -57 0
-6 -8 -42 -49 0
-6 -8 -42 -53 0
-6 -8 -42 -57 0
-6 -8 -49 -53 0
-6 -8 -49 -57 0
-6 -8 -53 -57 0
-6 -21 -24 -30 0
-6 -21 -24 -42 0
-6 -21 -24 -49 0
-6 -21 -24 -53 0
-6 -21 -24 -57 0
-6 -21 -30 -42 0
-6 -21 -30 -49 0
-6 -21 -30 -53 0
-6 -21 -30 -57 0
-6 -21 -42 -49 0
-6 -21 -42 -53 0
-6 -21 -42 -57 0
-6 -21 -49 -53 0
-6 -21 -49 -57 0
-6 -21 -53 -57 0
-6 -24 -30 -42 0
-6 -24 -30 -49 0
-6 -24 -30 -53 0
-6 -24 -30 -57 0
-6 -24 -42 -49 0
-6 -24 -42 -53 0
-6 -24 -42 -57 0
-6 -24 -49 -53 0
-6 -24 -49 -57 0
-6 -24 -53 -57 0
-6 -30 -42 -49 0
-6 -30 -42 -53 0
-6 -30 -42 -57 0
-6 -30 -49 -53 0
-6 -30 -49 -57 0
-6 -30 -53 -57 0
-6 -42 -49 -53 0
-6 -42 -49 -57 0
-6 -42 -53 -57 0
-6 -49 -53 -57 0
-8 -21 -24 -30 0
-8 -21 -24 -42 0
-8 -21 -24 -49 0
-8 -21 -24 -53 0
-8 -21 -24 -57 0
-8 -21 -30 -42 0
-8 -21 -30 -49 0
-8 -21 -30 -53 0
-8 -21 -30 -57 0
-8 -21 -42 -49 0
-8 -21 -42 -53 0
-8 -21 -42 -57 0
-8 -21 -49 -53 0
-8 -21 -49 -57 0
-8 -21 -53 -57 0
-8 -24 -30 -42 0
-8 -24 -30 -49 0
-8 -24 -30 -53 0
-8 -24 -30 -57 0
-8 -24 -42 -49 0
-8 -24 -42 -53 0
-8 -24 -42 -57 0
-8 -24 -49 -53 0
-8 -24 -49 -57 0
-8 -24 -53 -57 0
-8 -30 -42 -49 0
-8 -30 -42 -53 0
-8 -30 -42 -57 0
-8 -30 -49 -53 0
-8 -30 -49 -57 0
-8 -30 -53 -57 0
-8 -42 -49 -53 0
-8 -42 -49 -57 0
-8 -42 -53 -57 0
-8 -49 -53 -57 0
-21 -24 -30 -42 0
-21 -24 -30 -49 0
-21 -24 -30 -53 0
-21 -24 -30 -57 0
-21 -24 -42 -49 0
-21 -24 -42 -53 0
-21 -24 -42 -57 0
-21 -24 -49 -53 0
-21 -24 -49 -57 0
-21 -24 -53 -57 0
-21 -30 -42 -49 0
-21 -30 -42 -53 0
-21 -30 -42 -57 0
-21 -30 -49 -53 0
-21 -30 -49 -57 0
-21 -30 -53 -57 0
-21 -42 -49 -53 0
-21 -42 -49 -57 0
-21 -42 -53 -57 0
-21 -49 -53 -57 0
-24 -30 -42 -49 0
-24 -30 -42 -53 0
-24 -30 -42 -57 0
-24 -30 -49 -53 0
-24 -30 -49 -57 0
-24 -30 -53 -57 0
-24 -42 -49 -53 0
-24 -42 -49 -57 0
-24 -42 -53 -57 0
-24 -49 -53 -57 0
-30 -42 -49 -53 0
-30 -42 -49 -57 0
-30 -42 -53 -57 0
-30 -49 -53 -57 0
-42 -49 -53 -57 0
-6 -12 -18 -27 0
-6 -12 -18 -34 0
-6 -12 -18 -36 0
-6 -12 -18 -48 0
-6 -12 -18 -54 0
-6 -12 -18 -63 0
-6 -12 -27 -34 0
-6 -12 -27 -36 0
-6 -12 -27 -48 0
-6 -12 -27 -54 0
-6 -12 -27 -63 0
-6 -12 -34 -36 0
-6 -12 -34 -48 0
-6 -12 -34 -54 0
-6 -12 -34 -63 0
-6 -12 -36 -48 0
-6 -12 -36 -54 0
-6 -12 -36 -63 0
-6 -12 -48 -54 0
-6 -12 -48 -63 0
-6 -12 -54 -63 0
-6 -18 -27 -34 0
-6 -18 -27 -36 0
-6 -18 -27 -48 0
-6 -18 -27 -54 0
-6 -18 -27 -63 0
-6 -18 -34 -36 0
-6 -18 -34 -48 0
-6 -18 -34 -54 0
-6 -18 -34 -63 0
-6 -18 -36 -48 0
-6 -18 -36 -54 0
-6 -18 -36 -63 0
-6 -18 -48 -54 0
-6 -18 -48 -63 0
-6 -18 -54 -63 0
-6 -27 -34 -36 0
-6 -27 -34 -48 0
-6 -27 -34 -54 0
-6 -27 -34 -63 0
-6 -27 -36 -48 0
-6 -27 -36 -54 0
-6 -27 -36 -63 0
-6 -27 -48 -54 0
-6 -27 -48 -63 0
-6 -27 -54 -63 0
-6 -34 -36 -48 0
-6 -34 -36 -54 0
-6 -34 -36 -63 0
-6 -34 -48 -54 0
-6 -34 -48 -63 0
-6 -34 -54 -63 0
-6 -36 -48 -54 0
-6 -36 -48 -63 0
-6 -36 -54 -63 0
-6 -48 -54 -63 0
-12 -18 -27 -34 0
-12 -18 -27 -36 0
-12 -18 -27 -48 0
-12 -18 -27 -54 0
-12 -18 -27 -63 0
-12 -18 -34 -36 0
-12 -18 -34 -48 0
-12 -18 -34 -54 0
-12 -18 -34 -63 0
-12 -18 -36 -48 0
-12 -18 -36 -54 0
-12 -18 -36 -63 0
-12 -18 -48 -54 0
-12 -18 -48 -63 0
-12 -18 -54 -63 0
-12 -27 -34 -36 0
-12 -27 -34 -48 0
-12 -27 -34 -54 0
-12 -27 -34 -63 0
-12 -27 -36 -48 0
-12 -27 -36 -54 0
-12 -27 -36 -63 0
-12 -27 -48 -54 0
-12 -27 -48 -63 0
-12 -27 -54 -63 0
-12 -34 -36 -48 0
-12 -34 -36 -54 0
-12 -34 -36 -63 0
-12 -34 -48 -54 0
-12 -34 -48 -63 0
-12 -34 -54 -63 0
-12 -36 -48 -54 0
-12 -36 -48 -63 0
-12 -36 -54 -63 0
-12 -48 -54 -63 0
-18 -27 -34 -36 0
-18 -27 -34 -48 0
-18 -27 -34 -54 0
-18 -27 -34 -63 0
-18 -27 -36 -48 0
-18 -27 -36 -54 0
-18 -27 -36 -63 0
-18 -27 -48 -54 0
-18 -27 -48 -63 0
-18 -27 -54 -63 0
-18 -34 -36 -48 0
-18 -34 -36 -54 0
-18 -34 -36 -63 0
-18 -34 -48 -54 0
-18 -34 -48 -63 0
-18 -34 -54 -63 0
-18 -36 -48 -54 0
-18 -36 -48 -63 0
-18 -36 -54 -63 0
-18 -48 -54 -63 0
-27 -34 -36 -48 0
-27 -34 -36 -54 0
-27 -34 -36 -63 0
-27 -34 -48 -54 0
-27 -34 -48 -63 0
-27 -34 -54 -63 0
-27 -36 -48 -54 0
-27 -36 -48 -63 0
-27 -36 -54 -63 0
-27 -48 -54 -63 0
-34 -36 -48 -54 0
-34 -36 -48 -63 0
-34 -36 -54 -63 0
-34 -48 -54 -63 0
-36 -48 -54 -63 0
-1 -12 -18 -28 0
-1 -12 -18 -29 0
-1 -12 -18 -36 0
-1 -12 -18 -46 0
-1 -12 -18 -51 0
-1 -12 -18 -57 0
-1 -12 -28 -29 0
-1 -12 -28 -36 0
-1 -12 -28 -46 0
-1 -12 -28 -51 0
-1 -12 -28 -57 0
-1 -12 -29 -36 0
-1 -12 -29 -46 0
-1 -12 -29 -51 0
-1 -12 -29 -57 0
-1 -12 -36 -46 0
-1 -12 -36 -51 0
-1 -12 -36 -57 0
-1 -12 -46 -51 0
-1 -12 -46 -57 0
-1 -12 -51 -57 0
-1 -18 -28 -29 0
-1 -18 -28 -36 0
-1 -18 -28 -46 0
-1 -18 -28 -51 0
-1 -18 -28 -57 0
-1 -18 -29 -36 0
-1 -18 -29 -46 0
-1 -18 -29 -51 0
-1 -18 -29 -57 0
-1 -18 -36 -46 0
-1 -18 -36 -51 0
-1 -18 -36 -57 0
-1 -18 -46 -51 0
-1 -18 -46 -57 0
-1 -18 -51 -57 0
-1 -28 -29 -36 0
-1 -28 -29 -46 0
-1 -28 -29 -51 0
-1 -28 -29 -57 0
-1 -28 -36 -46 0
-1 -28 -36 -51 0
-1 -28 -36 -57 0
-1 -28 -46 -51 0
-1 -28 -46 -57 0
-1 -28 -51 -57 0
-1 -29 -36 -46 0
-1 -29 -36 -51 0
-1 -29 -36 -57 0
-1 -29 -46 -51 0
-1 -29 -46 -57 0
-1 -29 -51 -57 0
-1 -36 -46 -51 0
-1 -36 -46 -57 0
-1 -36 -51 -57 0
-1 -46 -51 -57 0
-12 -18 -28 -29 0
-12 -18 -28 -36 0
-12 -18 -28 -46 0
-12 -18 -28 -51 0
-12 -18 -28 -57 0
-12 -18 -29 -36 0
-12 -18 -29 -46 0
-12 -18 -29 -51 0
-12 -18 -29 -57 0
-12 -18 -36 -46 0
-12 -18 -36 -51 0
-12 -18 -36 -57 0
-12 -18 -46 -51 0
-12 -18 -46 -57 0
-12 -18 -51 -57 0
-12 -28 -29 -36 0
-12 -28 -29 -46 0
-12 -28 -29 -51 0
-12 -28 -29 -57 0
-12 -28 -36 -46 0
-12 -28 -36 -51 0
-12 -28 -36 -57 0
-12 -28 -46 -51 0
-12 -28 -46 -57 0
-12 -28 -51 -57 0
-12 -29 -36 -46 0
-12 -29 -36 -51 0
-12 -29 -36 -57 0
-12 -29 -46 -51 0
-12 -29 -46 -57 0
-12 -29 -51 -57 0
-12 -36 -46 -51 0
-12 -36 -46 -57 0
-12 -36 -51 -57 0
-12 -46 -51 -57 0
-18 -28 -29 -36 0
-18 -28 -29 -46 0
-18 -28 -29 -51 0
-18 -28 -29 -57 0
-18 -28 -36 -46 0
-18 -28 -36 -51 0
-18 -28 -36 -57 0
-18 -28 -46 -51 0
-18 -28 -46 -57 0
-18 -28 -51 -57 0
-18 -29 -36 -46 0
-18 -29 -36 -51 0
-18 -29 -36 -57 0
-18 -29 -46 -51 0
-18 -29 -46 -57 0
-18 -29 -51 -57 0
-18 -36 -46 -51 0
-18 -36 -46 -57 0
-18 -36 -51 -57 0
-18 -46 -51 -57 0
-28 -29 -36 -46 0
-28 -29 -36 -51 0
-28 -29 -36 -57 0
-28 -29 -46 -51 0
-28 -29 -46 -57 0
-28 -29 -51 -57 0
-28 -36 -46 -51 0
-28 -36 -46 -57 0
-28 -36 -51 -57 0
-28 -46 -51 -57 0
-29 -36 -46 -51 0
-29 -36 -46 -57 0
-29 -36 -51 -57 0
-29 -46 -51 -57 0
-36 -46 -51 -57 0
